# vtk DataFile Version 4.1
CantileverFEM
ASCII

DATASET UNSTRUCTURED_GRID
POINTS 1071 double
0 0 0.0
2 0 0.0
4 0 0.0
6 0 0.0
8 0 0.0
10 0 0.0
12 0 0.0
14 0 0.0
16 0 0.0
18 0 0.0
20 0 0.0
22 0 0.0
24 0 0.0
26 0 0.0
28 0 0.0
30 0 0.0
32 0 0.0
34 0 0.0
36 0 0.0
38 0 0.0
40 0 0.0
42 0 0.0
44 0 0.0
46 0 0.0
48 0 0.0
50 0 0.0
52 0 0.0
54 0 0.0
56 0 0.0
58 0 0.0
60 0 0.0
62 0 0.0
64 0 0.0
66 0 0.0
68 0 0.0
70 0 0.0
72 0 0.0
74 0 0.0
76 0 0.0
78 0 0.0
80 0 0.0
82 0 0.0
84 0 0.0
86 0 0.0
88 0 0.0
90 0 0.0
92 0 0.0
94 0 0.0
96 0 0.0
98 0 0.0
100 0 0.0
0 1 0.0
2 1 0.0
4 1 0.0
6 1 0.0
8 1 0.0
10 1 0.0
12 1 0.0
14 1 0.0
16 1 0.0
18 1 0.0
20 1 0.0
22 1 0.0
24 1 0.0
26 1 0.0
28 1 0.0
30 1 0.0
32 1 0.0
34 1 0.0
36 1 0.0
38 1 0.0
40 1 0.0
42 1 0.0
44 1 0.0
46 1 0.0
48 1 0.0
50 1 0.0
52 1 0.0
54 1 0.0
56 1 0.0
58 1 0.0
60 1 0.0
62 1 0.0
64 1 0.0
66 1 0.0
68 1 0.0
70 1 0.0
72 1 0.0
74 1 0.0
76 1 0.0
78 1 0.0
80 1 0.0
82 1 0.0
84 1 0.0
86 1 0.0
88 1 0.0
90 1 0.0
92 1 0.0
94 1 0.0
96 1 0.0
98 1 0.0
100 1 0.0
0 2 0.0
2 2 0.0
4 2 0.0
6 2 0.0
8 2 0.0
10 2 0.0
12 2 0.0
14 2 0.0
16 2 0.0
18 2 0.0
20 2 0.0
22 2 0.0
24 2 0.0
26 2 0.0
28 2 0.0
30 2 0.0
32 2 0.0
34 2 0.0
36 2 0.0
38 2 0.0
40 2 0.0
42 2 0.0
44 2 0.0
46 2 0.0
48 2 0.0
50 2 0.0
52 2 0.0
54 2 0.0
56 2 0.0
58 2 0.0
60 2 0.0
62 2 0.0
64 2 0.0
66 2 0.0
68 2 0.0
70 2 0.0
72 2 0.0
74 2 0.0
76 2 0.0
78 2 0.0
80 2 0.0
82 2 0.0
84 2 0.0
86 2 0.0
88 2 0.0
90 2 0.0
92 2 0.0
94 2 0.0
96 2 0.0
98 2 0.0
100 2 0.0
0 3 0.0
2 3 0.0
4 3 0.0
6 3 0.0
8 3 0.0
10 3 0.0
12 3 0.0
14 3 0.0
16 3 0.0
18 3 0.0
20 3 0.0
22 3 0.0
24 3 0.0
26 3 0.0
28 3 0.0
30 3 0.0
32 3 0.0
34 3 0.0
36 3 0.0
38 3 0.0
40 3 0.0
42 3 0.0
44 3 0.0
46 3 0.0
48 3 0.0
50 3 0.0
52 3 0.0
54 3 0.0
56 3 0.0
58 3 0.0
60 3 0.0
62 3 0.0
64 3 0.0
66 3 0.0
68 3 0.0
70 3 0.0
72 3 0.0
74 3 0.0
76 3 0.0
78 3 0.0
80 3 0.0
82 3 0.0
84 3 0.0
86 3 0.0
88 3 0.0
90 3 0.0
92 3 0.0
94 3 0.0
96 3 0.0
98 3 0.0
100 3 0.0
0 4 0.0
2 4 0.0
4 4 0.0
6 4 0.0
8 4 0.0
10 4 0.0
12 4 0.0
14 4 0.0
16 4 0.0
18 4 0.0
20 4 0.0
22 4 0.0
24 4 0.0
26 4 0.0
28 4 0.0
30 4 0.0
32 4 0.0
34 4 0.0
36 4 0.0
38 4 0.0
40 4 0.0
42 4 0.0
44 4 0.0
46 4 0.0
48 4 0.0
50 4 0.0
52 4 0.0
54 4 0.0
56 4 0.0
58 4 0.0
60 4 0.0
62 4 0.0
64 4 0.0
66 4 0.0
68 4 0.0
70 4 0.0
72 4 0.0
74 4 0.0
76 4 0.0
78 4 0.0
80 4 0.0
82 4 0.0
84 4 0.0
86 4 0.0
88 4 0.0
90 4 0.0
92 4 0.0
94 4 0.0
96 4 0.0
98 4 0.0
100 4 0.0
0 5 0.0
2 5 0.0
4 5 0.0
6 5 0.0
8 5 0.0
10 5 0.0
12 5 0.0
14 5 0.0
16 5 0.0
18 5 0.0
20 5 0.0
22 5 0.0
24 5 0.0
26 5 0.0
28 5 0.0
30 5 0.0
32 5 0.0
34 5 0.0
36 5 0.0
38 5 0.0
40 5 0.0
42 5 0.0
44 5 0.0
46 5 0.0
48 5 0.0
50 5 0.0
52 5 0.0
54 5 0.0
56 5 0.0
58 5 0.0
60 5 0.0
62 5 0.0
64 5 0.0
66 5 0.0
68 5 0.0
70 5 0.0
72 5 0.0
74 5 0.0
76 5 0.0
78 5 0.0
80 5 0.0
82 5 0.0
84 5 0.0
86 5 0.0
88 5 0.0
90 5 0.0
92 5 0.0
94 5 0.0
96 5 0.0
98 5 0.0
100 5 0.0
0 6 0.0
2 6 0.0
4 6 0.0
6 6 0.0
8 6 0.0
10 6 0.0
12 6 0.0
14 6 0.0
16 6 0.0
18 6 0.0
20 6 0.0
22 6 0.0
24 6 0.0
26 6 0.0
28 6 0.0
30 6 0.0
32 6 0.0
34 6 0.0
36 6 0.0
38 6 0.0
40 6 0.0
42 6 0.0
44 6 0.0
46 6 0.0
48 6 0.0
50 6 0.0
52 6 0.0
54 6 0.0
56 6 0.0
58 6 0.0
60 6 0.0
62 6 0.0
64 6 0.0
66 6 0.0
68 6 0.0
70 6 0.0
72 6 0.0
74 6 0.0
76 6 0.0
78 6 0.0
80 6 0.0
82 6 0.0
84 6 0.0
86 6 0.0
88 6 0.0
90 6 0.0
92 6 0.0
94 6 0.0
96 6 0.0
98 6 0.0
100 6 0.0
0 7 0.0
2 7 0.0
4 7 0.0
6 7 0.0
8 7 0.0
10 7 0.0
12 7 0.0
14 7 0.0
16 7 0.0
18 7 0.0
20 7 0.0
22 7 0.0
24 7 0.0
26 7 0.0
28 7 0.0
30 7 0.0
32 7 0.0
34 7 0.0
36 7 0.0
38 7 0.0
40 7 0.0
42 7 0.0
44 7 0.0
46 7 0.0
48 7 0.0
50 7 0.0
52 7 0.0
54 7 0.0
56 7 0.0
58 7 0.0
60 7 0.0
62 7 0.0
64 7 0.0
66 7 0.0
68 7 0.0
70 7 0.0
72 7 0.0
74 7 0.0
76 7 0.0
78 7 0.0
80 7 0.0
82 7 0.0
84 7 0.0
86 7 0.0
88 7 0.0
90 7 0.0
92 7 0.0
94 7 0.0
96 7 0.0
98 7 0.0
100 7 0.0
0 8 0.0
2 8 0.0
4 8 0.0
6 8 0.0
8 8 0.0
10 8 0.0
12 8 0.0
14 8 0.0
16 8 0.0
18 8 0.0
20 8 0.0
22 8 0.0
24 8 0.0
26 8 0.0
28 8 0.0
30 8 0.0
32 8 0.0
34 8 0.0
36 8 0.0
38 8 0.0
40 8 0.0
42 8 0.0
44 8 0.0
46 8 0.0
48 8 0.0
50 8 0.0
52 8 0.0
54 8 0.0
56 8 0.0
58 8 0.0
60 8 0.0
62 8 0.0
64 8 0.0
66 8 0.0
68 8 0.0
70 8 0.0
72 8 0.0
74 8 0.0
76 8 0.0
78 8 0.0
80 8 0.0
82 8 0.0
84 8 0.0
86 8 0.0
88 8 0.0
90 8 0.0
92 8 0.0
94 8 0.0
96 8 0.0
98 8 0.0
100 8 0.0
0 9 0.0
2 9 0.0
4 9 0.0
6 9 0.0
8 9 0.0
10 9 0.0
12 9 0.0
14 9 0.0
16 9 0.0
18 9 0.0
20 9 0.0
22 9 0.0
24 9 0.0
26 9 0.0
28 9 0.0
30 9 0.0
32 9 0.0
34 9 0.0
36 9 0.0
38 9 0.0
40 9 0.0
42 9 0.0
44 9 0.0
46 9 0.0
48 9 0.0
50 9 0.0
52 9 0.0
54 9 0.0
56 9 0.0
58 9 0.0
60 9 0.0
62 9 0.0
64 9 0.0
66 9 0.0
68 9 0.0
70 9 0.0
72 9 0.0
74 9 0.0
76 9 0.0
78 9 0.0
80 9 0.0
82 9 0.0
84 9 0.0
86 9 0.0
88 9 0.0
90 9 0.0
92 9 0.0
94 9 0.0
96 9 0.0
98 9 0.0
100 9 0.0
0 10 0.0
2 10 0.0
4 10 0.0
6 10 0.0
8 10 0.0
10 10 0.0
12 10 0.0
14 10 0.0
16 10 0.0
18 10 0.0
20 10 0.0
22 10 0.0
24 10 0.0
26 10 0.0
28 10 0.0
30 10 0.0
32 10 0.0
34 10 0.0
36 10 0.0
38 10 0.0
40 10 0.0
42 10 0.0
44 10 0.0
46 10 0.0
48 10 0.0
50 10 0.0
52 10 0.0
54 10 0.0
56 10 0.0
58 10 0.0
60 10 0.0
62 10 0.0
64 10 0.0
66 10 0.0
68 10 0.0
70 10 0.0
72 10 0.0
74 10 0.0
76 10 0.0
78 10 0.0
80 10 0.0
82 10 0.0
84 10 0.0
86 10 0.0
88 10 0.0
90 10 0.0
92 10 0.0
94 10 0.0
96 10 0.0
98 10 0.0
100 10 0.0
0 11 0.0
2 11 0.0
4 11 0.0
6 11 0.0
8 11 0.0
10 11 0.0
12 11 0.0
14 11 0.0
16 11 0.0
18 11 0.0
20 11 0.0
22 11 0.0
24 11 0.0
26 11 0.0
28 11 0.0
30 11 0.0
32 11 0.0
34 11 0.0
36 11 0.0
38 11 0.0
40 11 0.0
42 11 0.0
44 11 0.0
46 11 0.0
48 11 0.0
50 11 0.0
52 11 0.0
54 11 0.0
56 11 0.0
58 11 0.0
60 11 0.0
62 11 0.0
64 11 0.0
66 11 0.0
68 11 0.0
70 11 0.0
72 11 0.0
74 11 0.0
76 11 0.0
78 11 0.0
80 11 0.0
82 11 0.0
84 11 0.0
86 11 0.0
88 11 0.0
90 11 0.0
92 11 0.0
94 11 0.0
96 11 0.0
98 11 0.0
100 11 0.0
0 12 0.0
2 12 0.0
4 12 0.0
6 12 0.0
8 12 0.0
10 12 0.0
12 12 0.0
14 12 0.0
16 12 0.0
18 12 0.0
20 12 0.0
22 12 0.0
24 12 0.0
26 12 0.0
28 12 0.0
30 12 0.0
32 12 0.0
34 12 0.0
36 12 0.0
38 12 0.0
40 12 0.0
42 12 0.0
44 12 0.0
46 12 0.0
48 12 0.0
50 12 0.0
52 12 0.0
54 12 0.0
56 12 0.0
58 12 0.0
60 12 0.0
62 12 0.0
64 12 0.0
66 12 0.0
68 12 0.0
70 12 0.0
72 12 0.0
74 12 0.0
76 12 0.0
78 12 0.0
80 12 0.0
82 12 0.0
84 12 0.0
86 12 0.0
88 12 0.0
90 12 0.0
92 12 0.0
94 12 0.0
96 12 0.0
98 12 0.0
100 12 0.0
0 13 0.0
2 13 0.0
4 13 0.0
6 13 0.0
8 13 0.0
10 13 0.0
12 13 0.0
14 13 0.0
16 13 0.0
18 13 0.0
20 13 0.0
22 13 0.0
24 13 0.0
26 13 0.0
28 13 0.0
30 13 0.0
32 13 0.0
34 13 0.0
36 13 0.0
38 13 0.0
40 13 0.0
42 13 0.0
44 13 0.0
46 13 0.0
48 13 0.0
50 13 0.0
52 13 0.0
54 13 0.0
56 13 0.0
58 13 0.0
60 13 0.0
62 13 0.0
64 13 0.0
66 13 0.0
68 13 0.0
70 13 0.0
72 13 0.0
74 13 0.0
76 13 0.0
78 13 0.0
80 13 0.0
82 13 0.0
84 13 0.0
86 13 0.0
88 13 0.0
90 13 0.0
92 13 0.0
94 13 0.0
96 13 0.0
98 13 0.0
100 13 0.0
0 14 0.0
2 14 0.0
4 14 0.0
6 14 0.0
8 14 0.0
10 14 0.0
12 14 0.0
14 14 0.0
16 14 0.0
18 14 0.0
20 14 0.0
22 14 0.0
24 14 0.0
26 14 0.0
28 14 0.0
30 14 0.0
32 14 0.0
34 14 0.0
36 14 0.0
38 14 0.0
40 14 0.0
42 14 0.0
44 14 0.0
46 14 0.0
48 14 0.0
50 14 0.0
52 14 0.0
54 14 0.0
56 14 0.0
58 14 0.0
60 14 0.0
62 14 0.0
64 14 0.0
66 14 0.0
68 14 0.0
70 14 0.0
72 14 0.0
74 14 0.0
76 14 0.0
78 14 0.0
80 14 0.0
82 14 0.0
84 14 0.0
86 14 0.0
88 14 0.0
90 14 0.0
92 14 0.0
94 14 0.0
96 14 0.0
98 14 0.0
100 14 0.0
0 15 0.0
2 15 0.0
4 15 0.0
6 15 0.0
8 15 0.0
10 15 0.0
12 15 0.0
14 15 0.0
16 15 0.0
18 15 0.0
20 15 0.0
22 15 0.0
24 15 0.0
26 15 0.0
28 15 0.0
30 15 0.0
32 15 0.0
34 15 0.0
36 15 0.0
38 15 0.0
40 15 0.0
42 15 0.0
44 15 0.0
46 15 0.0
48 15 0.0
50 15 0.0
52 15 0.0
54 15 0.0
56 15 0.0
58 15 0.0
60 15 0.0
62 15 0.0
64 15 0.0
66 15 0.0
68 15 0.0
70 15 0.0
72 15 0.0
74 15 0.0
76 15 0.0
78 15 0.0
80 15 0.0
82 15 0.0
84 15 0.0
86 15 0.0
88 15 0.0
90 15 0.0
92 15 0.0
94 15 0.0
96 15 0.0
98 15 0.0
100 15 0.0
0 16 0.0
2 16 0.0
4 16 0.0
6 16 0.0
8 16 0.0
10 16 0.0
12 16 0.0
14 16 0.0
16 16 0.0
18 16 0.0
20 16 0.0
22 16 0.0
24 16 0.0
26 16 0.0
28 16 0.0
30 16 0.0
32 16 0.0
34 16 0.0
36 16 0.0
38 16 0.0
40 16 0.0
42 16 0.0
44 16 0.0
46 16 0.0
48 16 0.0
50 16 0.0
52 16 0.0
54 16 0.0
56 16 0.0
58 16 0.0
60 16 0.0
62 16 0.0
64 16 0.0
66 16 0.0
68 16 0.0
70 16 0.0
72 16 0.0
74 16 0.0
76 16 0.0
78 16 0.0
80 16 0.0
82 16 0.0
84 16 0.0
86 16 0.0
88 16 0.0
90 16 0.0
92 16 0.0
94 16 0.0
96 16 0.0
98 16 0.0
100 16 0.0
0 17 0.0
2 17 0.0
4 17 0.0
6 17 0.0
8 17 0.0
10 17 0.0
12 17 0.0
14 17 0.0
16 17 0.0
18 17 0.0
20 17 0.0
22 17 0.0
24 17 0.0
26 17 0.0
28 17 0.0
30 17 0.0
32 17 0.0
34 17 0.0
36 17 0.0
38 17 0.0
40 17 0.0
42 17 0.0
44 17 0.0
46 17 0.0
48 17 0.0
50 17 0.0
52 17 0.0
54 17 0.0
56 17 0.0
58 17 0.0
60 17 0.0
62 17 0.0
64 17 0.0
66 17 0.0
68 17 0.0
70 17 0.0
72 17 0.0
74 17 0.0
76 17 0.0
78 17 0.0
80 17 0.0
82 17 0.0
84 17 0.0
86 17 0.0
88 17 0.0
90 17 0.0
92 17 0.0
94 17 0.0
96 17 0.0
98 17 0.0
100 17 0.0
0 18 0.0
2 18 0.0
4 18 0.0
6 18 0.0
8 18 0.0
10 18 0.0
12 18 0.0
14 18 0.0
16 18 0.0
18 18 0.0
20 18 0.0
22 18 0.0
24 18 0.0
26 18 0.0
28 18 0.0
30 18 0.0
32 18 0.0
34 18 0.0
36 18 0.0
38 18 0.0
40 18 0.0
42 18 0.0
44 18 0.0
46 18 0.0
48 18 0.0
50 18 0.0
52 18 0.0
54 18 0.0
56 18 0.0
58 18 0.0
60 18 0.0
62 18 0.0
64 18 0.0
66 18 0.0
68 18 0.0
70 18 0.0
72 18 0.0
74 18 0.0
76 18 0.0
78 18 0.0
80 18 0.0
82 18 0.0
84 18 0.0
86 18 0.0
88 18 0.0
90 18 0.0
92 18 0.0
94 18 0.0
96 18 0.0
98 18 0.0
100 18 0.0
0 19 0.0
2 19 0.0
4 19 0.0
6 19 0.0
8 19 0.0
10 19 0.0
12 19 0.0
14 19 0.0
16 19 0.0
18 19 0.0
20 19 0.0
22 19 0.0
24 19 0.0
26 19 0.0
28 19 0.0
30 19 0.0
32 19 0.0
34 19 0.0
36 19 0.0
38 19 0.0
40 19 0.0
42 19 0.0
44 19 0.0
46 19 0.0
48 19 0.0
50 19 0.0
52 19 0.0
54 19 0.0
56 19 0.0
58 19 0.0
60 19 0.0
62 19 0.0
64 19 0.0
66 19 0.0
68 19 0.0
70 19 0.0
72 19 0.0
74 19 0.0
76 19 0.0
78 19 0.0
80 19 0.0
82 19 0.0
84 19 0.0
86 19 0.0
88 19 0.0
90 19 0.0
92 19 0.0
94 19 0.0
96 19 0.0
98 19 0.0
100 19 0.0
0 20 0.0
2 20 0.0
4 20 0.0
6 20 0.0
8 20 0.0
10 20 0.0
12 20 0.0
14 20 0.0
16 20 0.0
18 20 0.0
20 20 0.0
22 20 0.0
24 20 0.0
26 20 0.0
28 20 0.0
30 20 0.0
32 20 0.0
34 20 0.0
36 20 0.0
38 20 0.0
40 20 0.0
42 20 0.0
44 20 0.0
46 20 0.0
48 20 0.0
50 20 0.0
52 20 0.0
54 20 0.0
56 20 0.0
58 20 0.0
60 20 0.0
62 20 0.0
64 20 0.0
66 20 0.0
68 20 0.0
70 20 0.0
72 20 0.0
74 20 0.0
76 20 0.0
78 20 0.0
80 20 0.0
82 20 0.0
84 20 0.0
86 20 0.0
88 20 0.0
90 20 0.0
92 20 0.0
94 20 0.0
96 20 0.0
98 20 0.0
100 20 0.0

CELLS 1000 5000
4 0 1 52 51
4 1 2 53 52
4 2 3 54 53
4 3 4 55 54
4 4 5 56 55
4 5 6 57 56
4 6 7 58 57
4 7 8 59 58
4 8 9 60 59
4 9 10 61 60
4 10 11 62 61
4 11 12 63 62
4 12 13 64 63
4 13 14 65 64
4 14 15 66 65
4 15 16 67 66
4 16 17 68 67
4 17 18 69 68
4 18 19 70 69
4 19 20 71 70
4 20 21 72 71
4 21 22 73 72
4 22 23 74 73
4 23 24 75 74
4 24 25 76 75
4 25 26 77 76
4 26 27 78 77
4 27 28 79 78
4 28 29 80 79
4 29 30 81 80
4 30 31 82 81
4 31 32 83 82
4 32 33 84 83
4 33 34 85 84
4 34 35 86 85
4 35 36 87 86
4 36 37 88 87
4 37 38 89 88
4 38 39 90 89
4 39 40 91 90
4 40 41 92 91
4 41 42 93 92
4 42 43 94 93
4 43 44 95 94
4 44 45 96 95
4 45 46 97 96
4 46 47 98 97
4 47 48 99 98
4 48 49 100 99
4 49 50 101 100
4 51 52 103 102
4 52 53 104 103
4 53 54 105 104
4 54 55 106 105
4 55 56 107 106
4 56 57 108 107
4 57 58 109 108
4 58 59 110 109
4 59 60 111 110
4 60 61 112 111
4 61 62 113 112
4 62 63 114 113
4 63 64 115 114
4 64 65 116 115
4 65 66 117 116
4 66 67 118 117
4 67 68 119 118
4 68 69 120 119
4 69 70 121 120
4 70 71 122 121
4 71 72 123 122
4 72 73 124 123
4 73 74 125 124
4 74 75 126 125
4 75 76 127 126
4 76 77 128 127
4 77 78 129 128
4 78 79 130 129
4 79 80 131 130
4 80 81 132 131
4 81 82 133 132
4 82 83 134 133
4 83 84 135 134
4 84 85 136 135
4 85 86 137 136
4 86 87 138 137
4 87 88 139 138
4 88 89 140 139
4 89 90 141 140
4 90 91 142 141
4 91 92 143 142
4 92 93 144 143
4 93 94 145 144
4 94 95 146 145
4 95 96 147 146
4 96 97 148 147
4 97 98 149 148
4 98 99 150 149
4 99 100 151 150
4 100 101 152 151
4 102 103 154 153
4 103 104 155 154
4 104 105 156 155
4 105 106 157 156
4 106 107 158 157
4 107 108 159 158
4 108 109 160 159
4 109 110 161 160
4 110 111 162 161
4 111 112 163 162
4 112 113 164 163
4 113 114 165 164
4 114 115 166 165
4 115 116 167 166
4 116 117 168 167
4 117 118 169 168
4 118 119 170 169
4 119 120 171 170
4 120 121 172 171
4 121 122 173 172
4 122 123 174 173
4 123 124 175 174
4 124 125 176 175
4 125 126 177 176
4 126 127 178 177
4 127 128 179 178
4 128 129 180 179
4 129 130 181 180
4 130 131 182 181
4 131 132 183 182
4 132 133 184 183
4 133 134 185 184
4 134 135 186 185
4 135 136 187 186
4 136 137 188 187
4 137 138 189 188
4 138 139 190 189
4 139 140 191 190
4 140 141 192 191
4 141 142 193 192
4 142 143 194 193
4 143 144 195 194
4 144 145 196 195
4 145 146 197 196
4 146 147 198 197
4 147 148 199 198
4 148 149 200 199
4 149 150 201 200
4 150 151 202 201
4 151 152 203 202
4 153 154 205 204
4 154 155 206 205
4 155 156 207 206
4 156 157 208 207
4 157 158 209 208
4 158 159 210 209
4 159 160 211 210
4 160 161 212 211
4 161 162 213 212
4 162 163 214 213
4 163 164 215 214
4 164 165 216 215
4 165 166 217 216
4 166 167 218 217
4 167 168 219 218
4 168 169 220 219
4 169 170 221 220
4 170 171 222 221
4 171 172 223 222
4 172 173 224 223
4 173 174 225 224
4 174 175 226 225
4 175 176 227 226
4 176 177 228 227
4 177 178 229 228
4 178 179 230 229
4 179 180 231 230
4 180 181 232 231
4 181 182 233 232
4 182 183 234 233
4 183 184 235 234
4 184 185 236 235
4 185 186 237 236
4 186 187 238 237
4 187 188 239 238
4 188 189 240 239
4 189 190 241 240
4 190 191 242 241
4 191 192 243 242
4 192 193 244 243
4 193 194 245 244
4 194 195 246 245
4 195 196 247 246
4 196 197 248 247
4 197 198 249 248
4 198 199 250 249
4 199 200 251 250
4 200 201 252 251
4 201 202 253 252
4 202 203 254 253
4 204 205 256 255
4 205 206 257 256
4 206 207 258 257
4 207 208 259 258
4 208 209 260 259
4 209 210 261 260
4 210 211 262 261
4 211 212 263 262
4 212 213 264 263
4 213 214 265 264
4 214 215 266 265
4 215 216 267 266
4 216 217 268 267
4 217 218 269 268
4 218 219 270 269
4 219 220 271 270
4 220 221 272 271
4 221 222 273 272
4 222 223 274 273
4 223 224 275 274
4 224 225 276 275
4 225 226 277 276
4 226 227 278 277
4 227 228 279 278
4 228 229 280 279
4 229 230 281 280
4 230 231 282 281
4 231 232 283 282
4 232 233 284 283
4 233 234 285 284
4 234 235 286 285
4 235 236 287 286
4 236 237 288 287
4 237 238 289 288
4 238 239 290 289
4 239 240 291 290
4 240 241 292 291
4 241 242 293 292
4 242 243 294 293
4 243 244 295 294
4 244 245 296 295
4 245 246 297 296
4 246 247 298 297
4 247 248 299 298
4 248 249 300 299
4 249 250 301 300
4 250 251 302 301
4 251 252 303 302
4 252 253 304 303
4 253 254 305 304
4 255 256 307 306
4 256 257 308 307
4 257 258 309 308
4 258 259 310 309
4 259 260 311 310
4 260 261 312 311
4 261 262 313 312
4 262 263 314 313
4 263 264 315 314
4 264 265 316 315
4 265 266 317 316
4 266 267 318 317
4 267 268 319 318
4 268 269 320 319
4 269 270 321 320
4 270 271 322 321
4 271 272 323 322
4 272 273 324 323
4 273 274 325 324
4 274 275 326 325
4 275 276 327 326
4 276 277 328 327
4 277 278 329 328
4 278 279 330 329
4 279 280 331 330
4 280 281 332 331
4 281 282 333 332
4 282 283 334 333
4 283 284 335 334
4 284 285 336 335
4 285 286 337 336
4 286 287 338 337
4 287 288 339 338
4 288 289 340 339
4 289 290 341 340
4 290 291 342 341
4 291 292 343 342
4 292 293 344 343
4 293 294 345 344
4 294 295 346 345
4 295 296 347 346
4 296 297 348 347
4 297 298 349 348
4 298 299 350 349
4 299 300 351 350
4 300 301 352 351
4 301 302 353 352
4 302 303 354 353
4 303 304 355 354
4 304 305 356 355
4 306 307 358 357
4 307 308 359 358
4 308 309 360 359
4 309 310 361 360
4 310 311 362 361
4 311 312 363 362
4 312 313 364 363
4 313 314 365 364
4 314 315 366 365
4 315 316 367 366
4 316 317 368 367
4 317 318 369 368
4 318 319 370 369
4 319 320 371 370
4 320 321 372 371
4 321 322 373 372
4 322 323 374 373
4 323 324 375 374
4 324 325 376 375
4 325 326 377 376
4 326 327 378 377
4 327 328 379 378
4 328 329 380 379
4 329 330 381 380
4 330 331 382 381
4 331 332 383 382
4 332 333 384 383
4 333 334 385 384
4 334 335 386 385
4 335 336 387 386
4 336 337 388 387
4 337 338 389 388
4 338 339 390 389
4 339 340 391 390
4 340 341 392 391
4 341 342 393 392
4 342 343 394 393
4 343 344 395 394
4 344 345 396 395
4 345 346 397 396
4 346 347 398 397
4 347 348 399 398
4 348 349 400 399
4 349 350 401 400
4 350 351 402 401
4 351 352 403 402
4 352 353 404 403
4 353 354 405 404
4 354 355 406 405
4 355 356 407 406
4 357 358 409 408
4 358 359 410 409
4 359 360 411 410
4 360 361 412 411
4 361 362 413 412
4 362 363 414 413
4 363 364 415 414
4 364 365 416 415
4 365 366 417 416
4 366 367 418 417
4 367 368 419 418
4 368 369 420 419
4 369 370 421 420
4 370 371 422 421
4 371 372 423 422
4 372 373 424 423
4 373 374 425 424
4 374 375 426 425
4 375 376 427 426
4 376 377 428 427
4 377 378 429 428
4 378 379 430 429
4 379 380 431 430
4 380 381 432 431
4 381 382 433 432
4 382 383 434 433
4 383 384 435 434
4 384 385 436 435
4 385 386 437 436
4 386 387 438 437
4 387 388 439 438
4 388 389 440 439
4 389 390 441 440
4 390 391 442 441
4 391 392 443 442
4 392 393 444 443
4 393 394 445 444
4 394 395 446 445
4 395 396 447 446
4 396 397 448 447
4 397 398 449 448
4 398 399 450 449
4 399 400 451 450
4 400 401 452 451
4 401 402 453 452
4 402 403 454 453
4 403 404 455 454
4 404 405 456 455
4 405 406 457 456
4 406 407 458 457
4 408 409 460 459
4 409 410 461 460
4 410 411 462 461
4 411 412 463 462
4 412 413 464 463
4 413 414 465 464
4 414 415 466 465
4 415 416 467 466
4 416 417 468 467
4 417 418 469 468
4 418 419 470 469
4 419 420 471 470
4 420 421 472 471
4 421 422 473 472
4 422 423 474 473
4 423 424 475 474
4 424 425 476 475
4 425 426 477 476
4 426 427 478 477
4 427 428 479 478
4 428 429 480 479
4 429 430 481 480
4 430 431 482 481
4 431 432 483 482
4 432 433 484 483
4 433 434 485 484
4 434 435 486 485
4 435 436 487 486
4 436 437 488 487
4 437 438 489 488
4 438 439 490 489
4 439 440 491 490
4 440 441 492 491
4 441 442 493 492
4 442 443 494 493
4 443 444 495 494
4 444 445 496 495
4 445 446 497 496
4 446 447 498 497
4 447 448 499 498
4 448 449 500 499
4 449 450 501 500
4 450 451 502 501
4 451 452 503 502
4 452 453 504 503
4 453 454 505 504
4 454 455 506 505
4 455 456 507 506
4 456 457 508 507
4 457 458 509 508
4 459 460 511 510
4 460 461 512 511
4 461 462 513 512
4 462 463 514 513
4 463 464 515 514
4 464 465 516 515
4 465 466 517 516
4 466 467 518 517
4 467 468 519 518
4 468 469 520 519
4 469 470 521 520
4 470 471 522 521
4 471 472 523 522
4 472 473 524 523
4 473 474 525 524
4 474 475 526 525
4 475 476 527 526
4 476 477 528 527
4 477 478 529 528
4 478 479 530 529
4 479 480 531 530
4 480 481 532 531
4 481 482 533 532
4 482 483 534 533
4 483 484 535 534
4 484 485 536 535
4 485 486 537 536
4 486 487 538 537
4 487 488 539 538
4 488 489 540 539
4 489 490 541 540
4 490 491 542 541
4 491 492 543 542
4 492 493 544 543
4 493 494 545 544
4 494 495 546 545
4 495 496 547 546
4 496 497 548 547
4 497 498 549 548
4 498 499 550 549
4 499 500 551 550
4 500 501 552 551
4 501 502 553 552
4 502 503 554 553
4 503 504 555 554
4 504 505 556 555
4 505 506 557 556
4 506 507 558 557
4 507 508 559 558
4 508 509 560 559
4 510 511 562 561
4 511 512 563 562
4 512 513 564 563
4 513 514 565 564
4 514 515 566 565
4 515 516 567 566
4 516 517 568 567
4 517 518 569 568
4 518 519 570 569
4 519 520 571 570
4 520 521 572 571
4 521 522 573 572
4 522 523 574 573
4 523 524 575 574
4 524 525 576 575
4 525 526 577 576
4 526 527 578 577
4 527 528 579 578
4 528 529 580 579
4 529 530 581 580
4 530 531 582 581
4 531 532 583 582
4 532 533 584 583
4 533 534 585 584
4 534 535 586 585
4 535 536 587 586
4 536 537 588 587
4 537 538 589 588
4 538 539 590 589
4 539 540 591 590
4 540 541 592 591
4 541 542 593 592
4 542 543 594 593
4 543 544 595 594
4 544 545 596 595
4 545 546 597 596
4 546 547 598 597
4 547 548 599 598
4 548 549 600 599
4 549 550 601 600
4 550 551 602 601
4 551 552 603 602
4 552 553 604 603
4 553 554 605 604
4 554 555 606 605
4 555 556 607 606
4 556 557 608 607
4 557 558 609 608
4 558 559 610 609
4 559 560 611 610
4 561 562 613 612
4 562 563 614 613
4 563 564 615 614
4 564 565 616 615
4 565 566 617 616
4 566 567 618 617
4 567 568 619 618
4 568 569 620 619
4 569 570 621 620
4 570 571 622 621
4 571 572 623 622
4 572 573 624 623
4 573 574 625 624
4 574 575 626 625
4 575 576 627 626
4 576 577 628 627
4 577 578 629 628
4 578 579 630 629
4 579 580 631 630
4 580 581 632 631
4 581 582 633 632
4 582 583 634 633
4 583 584 635 634
4 584 585 636 635
4 585 586 637 636
4 586 587 638 637
4 587 588 639 638
4 588 589 640 639
4 589 590 641 640
4 590 591 642 641
4 591 592 643 642
4 592 593 644 643
4 593 594 645 644
4 594 595 646 645
4 595 596 647 646
4 596 597 648 647
4 597 598 649 648
4 598 599 650 649
4 599 600 651 650
4 600 601 652 651
4 601 602 653 652
4 602 603 654 653
4 603 604 655 654
4 604 605 656 655
4 605 606 657 656
4 606 607 658 657
4 607 608 659 658
4 608 609 660 659
4 609 610 661 660
4 610 611 662 661
4 612 613 664 663
4 613 614 665 664
4 614 615 666 665
4 615 616 667 666
4 616 617 668 667
4 617 618 669 668
4 618 619 670 669
4 619 620 671 670
4 620 621 672 671
4 621 622 673 672
4 622 623 674 673
4 623 624 675 674
4 624 625 676 675
4 625 626 677 676
4 626 627 678 677
4 627 628 679 678
4 628 629 680 679
4 629 630 681 680
4 630 631 682 681
4 631 632 683 682
4 632 633 684 683
4 633 634 685 684
4 634 635 686 685
4 635 636 687 686
4 636 637 688 687
4 637 638 689 688
4 638 639 690 689
4 639 640 691 690
4 640 641 692 691
4 641 642 693 692
4 642 643 694 693
4 643 644 695 694
4 644 645 696 695
4 645 646 697 696
4 646 647 698 697
4 647 648 699 698
4 648 649 700 699
4 649 650 701 700
4 650 651 702 701
4 651 652 703 702
4 652 653 704 703
4 653 654 705 704
4 654 655 706 705
4 655 656 707 706
4 656 657 708 707
4 657 658 709 708
4 658 659 710 709
4 659 660 711 710
4 660 661 712 711
4 661 662 713 712
4 663 664 715 714
4 664 665 716 715
4 665 666 717 716
4 666 667 718 717
4 667 668 719 718
4 668 669 720 719
4 669 670 721 720
4 670 671 722 721
4 671 672 723 722
4 672 673 724 723
4 673 674 725 724
4 674 675 726 725
4 675 676 727 726
4 676 677 728 727
4 677 678 729 728
4 678 679 730 729
4 679 680 731 730
4 680 681 732 731
4 681 682 733 732
4 682 683 734 733
4 683 684 735 734
4 684 685 736 735
4 685 686 737 736
4 686 687 738 737
4 687 688 739 738
4 688 689 740 739
4 689 690 741 740
4 690 691 742 741
4 691 692 743 742
4 692 693 744 743
4 693 694 745 744
4 694 695 746 745
4 695 696 747 746
4 696 697 748 747
4 697 698 749 748
4 698 699 750 749
4 699 700 751 750
4 700 701 752 751
4 701 702 753 752
4 702 703 754 753
4 703 704 755 754
4 704 705 756 755
4 705 706 757 756
4 706 707 758 757
4 707 708 759 758
4 708 709 760 759
4 709 710 761 760
4 710 711 762 761
4 711 712 763 762
4 712 713 764 763
4 714 715 766 765
4 715 716 767 766
4 716 717 768 767
4 717 718 769 768
4 718 719 770 769
4 719 720 771 770
4 720 721 772 771
4 721 722 773 772
4 722 723 774 773
4 723 724 775 774
4 724 725 776 775
4 725 726 777 776
4 726 727 778 777
4 727 728 779 778
4 728 729 780 779
4 729 730 781 780
4 730 731 782 781
4 731 732 783 782
4 732 733 784 783
4 733 734 785 784
4 734 735 786 785
4 735 736 787 786
4 736 737 788 787
4 737 738 789 788
4 738 739 790 789
4 739 740 791 790
4 740 741 792 791
4 741 742 793 792
4 742 743 794 793
4 743 744 795 794
4 744 745 796 795
4 745 746 797 796
4 746 747 798 797
4 747 748 799 798
4 748 749 800 799
4 749 750 801 800
4 750 751 802 801
4 751 752 803 802
4 752 753 804 803
4 753 754 805 804
4 754 755 806 805
4 755 756 807 806
4 756 757 808 807
4 757 758 809 808
4 758 759 810 809
4 759 760 811 810
4 760 761 812 811
4 761 762 813 812
4 762 763 814 813
4 763 764 815 814
4 765 766 817 816
4 766 767 818 817
4 767 768 819 818
4 768 769 820 819
4 769 770 821 820
4 770 771 822 821
4 771 772 823 822
4 772 773 824 823
4 773 774 825 824
4 774 775 826 825
4 775 776 827 826
4 776 777 828 827
4 777 778 829 828
4 778 779 830 829
4 779 780 831 830
4 780 781 832 831
4 781 782 833 832
4 782 783 834 833
4 783 784 835 834
4 784 785 836 835
4 785 786 837 836
4 786 787 838 837
4 787 788 839 838
4 788 789 840 839
4 789 790 841 840
4 790 791 842 841
4 791 792 843 842
4 792 793 844 843
4 793 794 845 844
4 794 795 846 845
4 795 796 847 846
4 796 797 848 847
4 797 798 849 848
4 798 799 850 849
4 799 800 851 850
4 800 801 852 851
4 801 802 853 852
4 802 803 854 853
4 803 804 855 854
4 804 805 856 855
4 805 806 857 856
4 806 807 858 857
4 807 808 859 858
4 808 809 860 859
4 809 810 861 860
4 810 811 862 861
4 811 812 863 862
4 812 813 864 863
4 813 814 865 864
4 814 815 866 865
4 816 817 868 867
4 817 818 869 868
4 818 819 870 869
4 819 820 871 870
4 820 821 872 871
4 821 822 873 872
4 822 823 874 873
4 823 824 875 874
4 824 825 876 875
4 825 826 877 876
4 826 827 878 877
4 827 828 879 878
4 828 829 880 879
4 829 830 881 880
4 830 831 882 881
4 831 832 883 882
4 832 833 884 883
4 833 834 885 884
4 834 835 886 885
4 835 836 887 886
4 836 837 888 887
4 837 838 889 888
4 838 839 890 889
4 839 840 891 890
4 840 841 892 891
4 841 842 893 892
4 842 843 894 893
4 843 844 895 894
4 844 845 896 895
4 845 846 897 896
4 846 847 898 897
4 847 848 899 898
4 848 849 900 899
4 849 850 901 900
4 850 851 902 901
4 851 852 903 902
4 852 853 904 903
4 853 854 905 904
4 854 855 906 905
4 855 856 907 906
4 856 857 908 907
4 857 858 909 908
4 858 859 910 909
4 859 860 911 910
4 860 861 912 911
4 861 862 913 912
4 862 863 914 913
4 863 864 915 914
4 864 865 916 915
4 865 866 917 916
4 867 868 919 918
4 868 869 920 919
4 869 870 921 920
4 870 871 922 921
4 871 872 923 922
4 872 873 924 923
4 873 874 925 924
4 874 875 926 925
4 875 876 927 926
4 876 877 928 927
4 877 878 929 928
4 878 879 930 929
4 879 880 931 930
4 880 881 932 931
4 881 882 933 932
4 882 883 934 933
4 883 884 935 934
4 884 885 936 935
4 885 886 937 936
4 886 887 938 937
4 887 888 939 938
4 888 889 940 939
4 889 890 941 940
4 890 891 942 941
4 891 892 943 942
4 892 893 944 943
4 893 894 945 944
4 894 895 946 945
4 895 896 947 946
4 896 897 948 947
4 897 898 949 948
4 898 899 950 949
4 899 900 951 950
4 900 901 952 951
4 901 902 953 952
4 902 903 954 953
4 903 904 955 954
4 904 905 956 955
4 905 906 957 956
4 906 907 958 957
4 907 908 959 958
4 908 909 960 959
4 909 910 961 960
4 910 911 962 961
4 911 912 963 962
4 912 913 964 963
4 913 914 965 964
4 914 915 966 965
4 915 916 967 966
4 916 917 968 967
4 918 919 970 969
4 919 920 971 970
4 920 921 972 971
4 921 922 973 972
4 922 923 974 973
4 923 924 975 974
4 924 925 976 975
4 925 926 977 976
4 926 927 978 977
4 927 928 979 978
4 928 929 980 979
4 929 930 981 980
4 930 931 982 981
4 931 932 983 982
4 932 933 984 983
4 933 934 985 984
4 934 935 986 985
4 935 936 987 986
4 936 937 988 987
4 937 938 989 988
4 938 939 990 989
4 939 940 991 990
4 940 941 992 991
4 941 942 993 992
4 942 943 994 993
4 943 944 995 994
4 944 945 996 995
4 945 946 997 996
4 946 947 998 997
4 947 948 999 998
4 948 949 1000 999
4 949 950 1001 1000
4 950 951 1002 1001
4 951 952 1003 1002
4 952 953 1004 1003
4 953 954 1005 1004
4 954 955 1006 1005
4 955 956 1007 1006
4 956 957 1008 1007
4 957 958 1009 1008
4 958 959 1010 1009
4 959 960 1011 1010
4 960 961 1012 1011
4 961 962 1013 1012
4 962 963 1014 1013
4 963 964 1015 1014
4 964 965 1016 1015
4 965 966 1017 1016
4 966 967 1018 1017
4 967 968 1019 1018
4 969 970 1021 1020
4 970 971 1022 1021
4 971 972 1023 1022
4 972 973 1024 1023
4 973 974 1025 1024
4 974 975 1026 1025
4 975 976 1027 1026
4 976 977 1028 1027
4 977 978 1029 1028
4 978 979 1030 1029
4 979 980 1031 1030
4 980 981 1032 1031
4 981 982 1033 1032
4 982 983 1034 1033
4 983 984 1035 1034
4 984 985 1036 1035
4 985 986 1037 1036
4 986 987 1038 1037
4 987 988 1039 1038
4 988 989 1040 1039
4 989 990 1041 1040
4 990 991 1042 1041
4 991 992 1043 1042
4 992 993 1044 1043
4 993 994 1045 1044
4 994 995 1046 1045
4 995 996 1047 1046
4 996 997 1048 1047
4 997 998 1049 1048
4 998 999 1050 1049
4 999 1000 1051 1050
4 1000 1001 1052 1051
4 1001 1002 1053 1052
4 1002 1003 1054 1053
4 1003 1004 1055 1054
4 1004 1005 1056 1055
4 1005 1006 1057 1056
4 1006 1007 1058 1057
4 1007 1008 1059 1058
4 1008 1009 1060 1059
4 1009 1010 1061 1060
4 1010 1011 1062 1061
4 1011 1012 1063 1062
4 1012 1013 1064 1063
4 1013 1014 1065 1064
4 1014 1015 1066 1065
4 1015 1016 1067 1066
4 1016 1017 1068 1067
4 1017 1018 1069 1068
4 1018 1019 1070 1069

CELL_TYPES 1000
9
9
9
9
9
9
9
9
9
9
9
9
9
9
9
9
9
9
9
9
9
9
9
9
9
9
9
9
9
9
9
9
9
9
9
9
9
9
9
9
9
9
9
9
9
9
9
9
9
9
9
9
9
9
9
9
9
9
9
9
9
9
9
9
9
9
9
9
9
9
9
9
9
9
9
9
9
9
9
9
9
9
9
9
9
9
9
9
9
9
9
9
9
9
9
9
9
9
9
9
9
9
9
9
9
9
9
9
9
9
9
9
9
9
9
9
9
9
9
9
9
9
9
9
9
9
9
9
9
9
9
9
9
9
9
9
9
9
9
9
9
9
9
9
9
9
9
9
9
9
9
9
9
9
9
9
9
9
9
9
9
9
9
9
9
9
9
9
9
9
9
9
9
9
9
9
9
9
9
9
9
9
9
9
9
9
9
9
9
9
9
9
9
9
9
9
9
9
9
9
9
9
9
9
9
9
9
9
9
9
9
9
9
9
9
9
9
9
9
9
9
9
9
9
9
9
9
9
9
9
9
9
9
9
9
9
9
9
9
9
9
9
9
9
9
9
9
9
9
9
9
9
9
9
9
9
9
9
9
9
9
9
9
9
9
9
9
9
9
9
9
9
9
9
9
9
9
9
9
9
9
9
9
9
9
9
9
9
9
9
9
9
9
9
9
9
9
9
9
9
9
9
9
9
9
9
9
9
9
9
9
9
9
9
9
9
9
9
9
9
9
9
9
9
9
9
9
9
9
9
9
9
9
9
9
9
9
9
9
9
9
9
9
9
9
9
9
9
9
9
9
9
9
9
9
9
9
9
9
9
9
9
9
9
9
9
9
9
9
9
9
9
9
9
9
9
9
9
9
9
9
9
9
9
9
9
9
9
9
9
9
9
9
9
9
9
9
9
9
9
9
9
9
9
9
9
9
9
9
9
9
9
9
9
9
9
9
9
9
9
9
9
9
9
9
9
9
9
9
9
9
9
9
9
9
9
9
9
9
9
9
9
9
9
9
9
9
9
9
9
9
9
9
9
9
9
9
9
9
9
9
9
9
9
9
9
9
9
9
9
9
9
9
9
9
9
9
9
9
9
9
9
9
9
9
9
9
9
9
9
9
9
9
9
9
9
9
9
9
9
9
9
9
9
9
9
9
9
9
9
9
9
9
9
9
9
9
9
9
9
9
9
9
9
9
9
9
9
9
9
9
9
9
9
9
9
9
9
9
9
9
9
9
9
9
9
9
9
9
9
9
9
9
9
9
9
9
9
9
9
9
9
9
9
9
9
9
9
9
9
9
9
9
9
9
9
9
9
9
9
9
9
9
9
9
9
9
9
9
9
9
9
9
9
9
9
9
9
9
9
9
9
9
9
9
9
9
9
9
9
9
9
9
9
9
9
9
9
9
9
9
9
9
9
9
9
9
9
9
9
9
9
9
9
9
9
9
9
9
9
9
9
9
9
9
9
9
9
9
9
9
9
9
9
9
9
9
9
9
9
9
9
9
9
9
9
9
9
9
9
9
9
9
9
9
9
9
9
9
9
9
9
9
9
9
9
9
9
9
9
9
9
9
9
9
9
9
9
9
9
9
9
9
9
9
9
9
9
9
9
9
9
9
9
9
9
9
9
9
9
9
9
9
9
9
9
9
9
9
9
9
9
9
9
9
9
9
9
9
9
9
9
9
9
9
9
9
9
9
9
9
9
9
9
9
9
9
9
9
9
9
9
9
9
9
9
9
9
9
9
9
9
9
9
9
9
9
9
9
9
9
9
9
9
9
9
9
9
9
9
9
9
9
9
9
9
9
9
9
9
9
9
9
9
9
9
9
9
9
9
9
9
9
9
9
9
9
9
9
9
9
9
9
9
9
9
9
9
9
9
9
9
9
9
9
9
9
9
9
9
9
9
9
9
9
9
9
9
9
9
9
9
9
9
9
9
9
9
9
9
9
9
9
9
9
9
9
9
9
9
9
9
9
9
9
9
9
9
9
9
9
9
9
9
9
9
9
9
9
9
9
9
9
9
9
9
9
9
9
9
9
9
9
9
9
9
9
9
9
9
9
9
9
9
9
9
9
9
9
9
9
9
9
9
9
9
9
9
9
9
9
9
9
9
9
9
9
9
9
9
9
9
9
9
9
9
9
9
9
9
9
9
9
9
9
9
9
9
9
9
9
9
9
9
9
9
9
9
9
9
9
9
9
9
9
9
9
9
9
9
9
9
9
9
9
9
9
9
9
9
9
9
9
9
9
9
9
9
9
9


POINT_DATA 1071
VECTORS displacements double
0 0 0.0
-0.14671800959312 -0.103548280625709 0.0
-0.270198626757185 -0.169503507643494 0.0
-0.393705932206903 -0.25212112546026 0.0
-0.517150858148128 -0.355354603868815 0.0
-0.639300074347053 -0.48220747110031 0.0
-0.759560035121565 -0.633004186377786 0.0
-0.877511975184077 -0.807616720237978 0.0
-0.992940746858697 -1.00561348502203 0.0
-1.1057347588163 -1.226478780395 0.0
-1.21584252149378 -1.46966521853799 0.0
-1.32324189725693 -1.73462023473274 0.0
-1.4279245138593 -2.02079264154975 0.0
-1.52988776106556 -2.32763394640474 0.0
-1.62913117490902 -2.65459774846552 0.0
-1.72565492597583 -3.00113895288623 0.0
-1.8194592745756 -3.36671317448577 0.0
-1.91054441735074 -3.75077637656547 0.0
-1.99891047245065 -4.15278467650098 0.0
-2.08455750125904 -4.57219425059775 0.0
-2.16748553233299 -5.0084612909717 0.0
-2.24769457964022 -5.46104198721646 0.0
-2.32518465611526 -5.92939251899423 0.0
-2.39995578573054 -6.41296905363385 0.0
-2.47200801733641 -6.91122774736974 0.0
-2.54134144311195 -7.42362475177523 0.0
-2.60795622394257 -7.94961622940288 0.0
-2.67185262317175 -8.4886583853553 0.0
-2.73303104838284 -9.04020752484143 0.0
-2.79149209723362 -9.60372015077288 0.0
-2.84723659653463 -10.1786531197169 0.0
-2.90026561180582 -10.7644638778942 0.0
-2.9505803848809 -11.3606107989257 0.0
-2.9981821265765 -11.9665536370654 0.0
-3.04307154669974 -12.5817540856425 0.0
-3.08524794263001 -13.2056763771581 0.0
-3.12470759251233 -13.8377877587138 0.0
-3.16144112227122 -14.477558495701 0.0
-3.19542947142631 -15.1244607631749 0.0
-3.2266381453987 -15.7779653475282 0.0
-3.25500975089831 -16.4375345042282 0.0
-3.28045559188538 -17.1026087021452 0.0
-3.30284865772238 -17.7725846467018 0.0
-3.32202293618492 -18.4467826072097 0.0
-3.33778759635594 -19.124403905937 0.0
-3.34996836229609 -19.8044862447054 0.0
-3.35848999485214 -20.4858772572702 0.0
-3.36350905011599 -21.1672671625643 0.0
-3.36558857719623 -21.8473498960182 0.0
-3.3658564827449 -22.5252514241783 0.0
-3.36572891913042 -23.2013681882695 0.0
0 0 0.0
-0.111834636385334 -0.0725582756510965 0.0
-0.233850903875872 -0.144640821660031 0.0
-0.347878412287049 -0.226563641603307 0.0
-0.460117377464919 -0.330272599685333 0.0
-0.570493182549152 -0.457469492908143 0.0
-0.678874692529139 -0.608734567214421 0.0
-0.785072569865547 -0.783851279959817 0.0
-0.888962240853648 -0.982379997666032 0.0
-0.990471302658851 -1.20378942427708 0.0
-1.08956233184275 -1.44752593640643 0.0
-1.18621761884204 -1.71303341897825 0.0
-1.28042954496843 -1.99975917647363 0.0
-1.37219520150175 -2.30715407911495 0.0
-1.46151367423644 -2.63467150560475 0.0
-1.54838479276526 -2.98176630188004 0.0
-1.63280860935776 -3.34789408000575 0.0
-1.71478520948853 -3.73251081410458 0.0
-1.79431465819363 -4.13507263206362 0.0
-1.87139699478897 -4.55503571715984 0.0
-1.94603224100283 -4.99185626513726 0.0
-2.01822041084584 -5.44499046661763 0.0
-2.08796151980895 -5.91389450009656 0.0
-2.15525559418289 -6.39802452941439 0.0
-2.22010268212832 -6.8968367043564 0.0
-2.28250286810467 -7.40978716600976 0.0
-2.34245629182855 -7.93633206101676 0.0
-2.39996317198276 -8.47592757170088 0.0
-2.45502383301294 -9.02802997264051 0.0
-2.50763872981705 -9.59209572873825 0.0
-2.55780845891693 -10.1675816548727 0.0
-2.60553373439127 -10.7539451617766 0.0
-2.65081529067801 -11.3506446145071 0.0
-2.69365365037949 -11.9571398241971 0.0
-2.73404866186838 -12.5728926725224 0.0
-2.77199866891034 -13.1973678178001 0.0
-2.8074991270875 -13.8300333303236 0.0
-2.84054044302729 -14.4703609211549 0.0
-2.87110481303762 -15.1178251229674 0.0
-2.89916193767745 -15.7719003138077 0.0
-2.92466379132153 -16.4320538342709 0.0
-2.94753928497761 -17.0977327211698 0.0
-2.96769085948668 -17.7683410740775 0.0
-2.98499690196263 -18.4432055035199 0.0
-2.99932621422058 -19.1215288129704 0.0
-3.01057270917254 -19.8023390288505 0.0
-3.01871794178962 -20.4844544889209 0.0
-3.02392227162232 -21.1665077159236 0.0
-3.02662380255315 -21.8471053180256 0.0
-3.0275756880032 -22.5252661411977 0.0
-3.0277573517572 -23.2013359290106 0.0
0 0 0.0
-0.0930743673614782 -0.0513745996702332 0.0
-0.198770879976475 -0.120379516546289 0.0
-0.303185252592917 -0.203537266739044 0.0
-0.404138353334278 -0.307555146019516 0.0
-0.502888992267622 -0.435238051036101 0.0
-0.599514093766937 -0.586966312617944 0.0
-0.69403611982551 -0.762566122184653 0.0
-0.786430608443113 -0.961583425278513 0.0
-0.876676942053372 -1.18348558890991 0.0
-0.964761564266904 -1.42771643980206 0.0
-1.05067710620868 -1.69371895354082 0.0
-1.13441995049359 -1.98093995782894 0.0
-1.21598849125056 -2.28883015568 0.0
-1.29538208937231 -2.61684286998123 0.0
-1.37260052815753 -2.96443293705235 0.0
-1.44764375521205 -3.33105597221916 0.0
-1.52051177163105 -3.71616795493032 0.0
-1.5912045899692 -4.11922501711583 0.0
-1.65972222151467 -4.53968334443031 0.0
-1.72606467484692 -4.97699913361295 0.0
-1.79023195838654 -5.43062857514742 0.0
-1.85222408456923 -5.90002784625627 0.0
-1.91204107534431 -6.38465310809042 0.0
-1.96968296945378 -6.88396050578061 0.0
-2.02514983208265 -7.39740617301062 0.0
-2.07844176719317 -7.92444624532621 0.0
-2.129558932087 -8.46453688933292 0.0
-2.17850155219465 -9.01713435872992 0.0
-2.22526993129142 -9.5816950929374 0.0
-2.26986444760101 -10.1576758796547 0.0
-2.31228551867684 -10.7445341080571 0.0
-2.35253350649905 -11.341728142223 0.0
-2.39060851786822 -11.9487178402525 0.0
-2.42651003335524 -12.56496522517 0.0
-2.46023627156947 -13.1899352651501 0.0
-2.49178316809953 -13.8230966206532 0.0
-2.52114282969225 -14.4639220319458 0.0
-2.54830133379403 -15.1118877090441 0.0
-2.5732358179159 -15.7664706019676 0.0
-2.59591100377903 -16.4271417521545 0.0
-2.61627572101239 -17.0933531272076 0.0
-2.63426075332435 -17.764514712601 0.0
-2.64978052309566 -18.439958893179 0.0
-2.66274268651268 -19.1188916835194 0.0
-2.67307106297903 -19.8003373315332 0.0
-2.6807469204483 -20.4830968749255 0.0
-2.6858681232459 -21.1657649020755 0.0
-2.68871096332827 -21.8468852273187 0.0
-2.68977910194464 -22.5253690097335 0.0
-2.68997807016588 -23.2012348686991 0.0
0 0 0.0
-0.0784016326824305 -0.0363186152109293 0.0
-0.168305565605894 -0.0997790642075938 0.0
-0.260030357900087 -0.182750522378404 0.0
-0.349489934856792 -0.287311170299594 0.0
-0.436508130209667 -0.41546494673703 0.0
-0.521398981959952 -0.567680556167297 0.0
-0.604272658315619 -0.743744443922798 0.0
-0.685193796132393 -0.943215198162421 0.0
-0.764190497333762 -1.16556273372484 0.0
-0.841275736829553 -1.41023466951231 0.0
-0.916454935803416 -1.67667596690676 0.0
-0.98973020057998 -1.96433466764533 0.0
-1.06110221886267 -2.27266208335678 0.0
-1.13057114085549 -2.60111182981057 0.0
-1.19813694579223 -2.94913886854164 0.0
-1.26379958019388 -3.31619886289173 0.0
-1.32755899979537 -3.70174780732837 0.0
-1.38941517638682 -4.10524183658023 0.0
-1.44936809462076 -4.52613713543051 0.0
-1.50741774788647 -4.96388989915688 0.0
-1.56356413584004 -5.41795631697989 0.0
-1.61780726395915 -5.88779256499511 0.0
-1.67014714495607 -6.37285480299929 0.0
-1.72058380188718 -6.87259917404067 0.0
-1.76911727285699 -7.38648180836406 0.0
-1.81574761711319 -7.91395883593344 0.0
-1.86047492191767 -8.4544864146726 0.0
-1.90329930868212 -9.00752078542561 0.0
-1.94422093522952 -9.57251836958332 0.0
-1.98323998834724 -10.1489359311375 0.0
-2.02035665660988 -10.7362308306905 0.0
-2.05557106729351 -11.3338614024695 0.0
-2.08888316264483 -11.941287482276 0.0
-2.12029247957946 -12.5579710964986 0.0
-2.14979778331085 -13.1833772761879 0.0
-2.17739649055067 -13.8169748639403 0.0
-2.20308380423125 -14.458237002684 0.0
-2.22685147388002 -15.1066406913412 0.0
-2.24868610293545 -15.7616643154299 0.0
-2.26856696606646 -16.4227813828724 0.0
-2.28646342102953 -17.0894478663961 0.0
-2.30233229816934 -17.7610798228428 0.0
-2.31611630092474 -18.4370179819727 0.0
-2.32774566255597 -19.116478116734 0.0
-2.33714709174174 -19.7984924746116 0.0
-2.34426564306869 -20.4818613882159 0.0
-2.34910455745934 -21.1651582444653 0.0
-2.35178726881811 -21.846864045139 0.0
-2.35267507619657 -22.5257157172861 0.0
-2.35268449385438 -23.2012224108632 0.0
0 0 0.0
-0.0655763125339138 -0.0252370782298297 0.0
-0.140794244497534 -0.0830021851725393 0.0
-0.219041867926367 -0.164742727896289 0.0
-0.29624734060804 -0.269560914436843 0.0
-0.371364403149061 -0.398188851893127 0.0
-0.444446947811683 -0.550875179238253 0.0
-0.515657077626282 -0.727384305138248 0.0
-0.585103629858612 -0.927272219127402 0.0
-0.652853415134683 -1.15001897580122 0.0
-0.718941842011449 -1.39507951274574 0.0
-0.78338643659616 -1.66190390103189 0.0
-0.846195114295412 -1.94994304483917 0.0
-0.90737111946075 -2.25864975281509 0.0
-0.966915603180905 -2.58747834454868 0.0
-1.02482887504793 -2.93588408432681 0.0
-1.08111095444011 -3.30332275023305 0.0
-1.13576178843499 -3.68925037243167 0.0
-1.18878132443584 -4.09312309209165 0.0
-1.24016952670084 -4.51439709192571 0.0
-1.28992637489506 -4.95252856413063 0.0
-1.33805185911153 -5.40697369596201 0.0
-1.38454597582335 -5.87718866288551 0.0
-1.42940872555159 -6.36262962507621 0.0
-1.47264011195316 -6.86275272650673 0.0
-1.51424014187309 -7.37701409830347 0.0
-1.55420882597594 -7.90486987038506 0.0
-1.59254617961715 -8.44577619824873 0.0
-1.62925222355247 -8.99918931553267 0.0
-1.66432698387923 -9.56456562782115 0.0
-1.69777049023664 -10.1413618688805 0.0
-1.72958277073272 -10.7290353462618 0.0
-1.75976384126233 -11.3270443069248 0.0
-1.78831368569863 -11.9348484511115 0.0
-1.81523222149427 -12.551909606641 0.0
-1.84051924145493 -13.1776925334696 0.0
-1.86417431419783 -13.8116657397307 0.0
-1.88619660720929 -14.4533020259542 0.0
-1.90658455610678 -15.102078193947 0.0
-1.92533522358402 -15.7574729150003 0.0
-1.94244305221457 -16.4189611128895 0.0
-1.95789752197674 -17.0860023979186 0.0
-1.97167907237051 -17.7580202569081 0.0
-1.98375284227701 -18.4343683724857 0.0
-1.99406092705344 -19.1142817889359 0.0
-2.0025167501468 -19.7968158823766 0.0
-2.00901018431864 -20.4807885756923 0.0
-2.01343878553447 -21.164764030481 0.0
-2.01579154413895 -21.8471431554801 0.0
-2.01633620081607 -22.5264173612574 0.0
-2.01599569806749 -23.2015013572817 0.0
0 0 0.0
-0.0537391877317303 -0.0169608704587445 0.0
-0.115223852957527 -0.0696557658204638 0.0
-0.179943954280408 -0.149701754367507 0.0
-0.244456644331058 -0.254444374871075 0.0
-0.307400057918156 -0.383451491396376 0.0
-0.368564072340488 -0.536574095953806 0.0
-0.428059452750517 -0.713493422100846 0.0
-0.486011918663804 -0.913757594446951 0.0
-0.542507790286404 -1.13685510012128 0.0
-0.597597538977405 -1.38225107363089 0.0
-0.651307380819187 -1.64940265279899 0.0
-0.703649766255918 -1.93776497689773 0.0
-0.75463005937654 -2.24679308370189 0.0
-0.804250312294754 -2.57594236689472 0.0
-0.85251117137029 -2.92466855954502 0.0
-0.899412757901081 -3.29242762242226 0.0
-0.944955035150289 -3.67867564524414 0.0
-0.989137942017443 -4.08286878205591 0.0
-1.03196143094617 -4.50446321412662 0.0
-1.0734254717647 -4.94291513003883 0.0
-1.1135300461835 -5.39768071501471 0.0
-1.15227514137374 -5.86821614478229 0.0
-1.18966074461789 -6.35397758189349 0.0
-1.22568683890896 -6.85442117440157 0.0
-1.26035339897118 -7.36900305858626 0.0
-1.29366038741475 -7.89717936941791 0.0
-1.32560775127725 -8.43840626505348 0.0
-1.35619542004281 -8.99213997513777 0.0
-1.38542330752459 -9.55783688716786 0.0
-1.41329132199203 -10.1349536904832 0.0
-1.43979939190818 -10.7229476027993 0.0
-1.46494751884863 -11.3212767077746 0.0
-1.48873587456439 -11.9294004302405 0.0
-1.51116496490505 -12.5467801619097 0.0
-1.53223588676726 -13.172880013715 0.0
-1.55195069883574 -13.8071675944725 0.0
-1.57031289878976 -14.4491145744995 0.0
-1.58732792285329 -15.0981965535591 0.0
-1.60300341566528 -15.7538913737633 0.0
-1.61734870478451 -16.4156744572002 0.0
-1.63037242106186 -17.0830089802842 0.0
-1.64207662256397 -17.7553277712226 0.0
-1.65244552884675 -18.432003006679 0.0
-1.66142809601982 -19.1122999287558 0.0
-1.66891791585953 -19.7953138941427 0.0
-1.67474316417177 -20.4798997373767 0.0
-1.67869416941134 -21.16462240684 0.0
-1.68063370850469 -21.8477830390015 0.0
-1.68074264927552 -22.5275706185619 0.0
-1.67991840510577 -23.2022760706396 0.0
0 0 0.0
-0.042489532439613 -0.0108030944806778 0.0
-0.090953683786989 -0.0593096624076047 0.0
-0.142339018099777 -0.137608809256542 0.0
-0.193967883464569 -0.2420554124958 0.0
-0.244515034464172 -0.371314285616487 0.0
-0.293627283331271 -0.52480878695378 0.0
-0.341340707364001 -0.702088409075516 0.0
-0.387766690811254 -0.902678762242471 0.0
-0.432994718139834 -1.12607433155075 0.0
-0.477080337268513 -1.37175055215983 0.0
-0.520053650466557 -1.639172596243 0.0
-0.561929360979733 -1.92780052758972 0.0
-0.602713999296936 -2.23709204976637 0.0
-0.64241016032181 -2.56650385818394 0.0
-0.681018719961264 -2.91549226506852 0.0
-0.718539884902269 -3.28351346181784 0.0
-0.754973644011676 -3.67002361649887 0.0
-0.790319939909987 -4.07447890231972 0.0
-0.824578722101314 -4.49633550079147 0.0
-0.8577499557472 -4.93504959735169 0.0
-0.889833616759915 -5.39007737579729 0.0
-0.920829684169115 -5.86087501338339 0.0
-0.950738132676683 -6.34689867716956 0.0
-0.979558925541754 -6.8476045223603 0.0
-1.00729200738653 -7.36244869431548 0.0
-1.03393729692688 -7.89088733743981 0.0
-1.05949468064955 -8.4323766163703 0.0
-1.08396401016275 -8.98637275790129 0.0
-1.1073451086596 -9.55233212597994 0.0
-1.12963779611629 -10.1297113467033 0.0
-1.1508419490218 -10.7179675048938 0.0
-1.17095761902127 -11.3165584369985 0.0
-1.18998524579504 -11.9249431437659 0.0
-1.20792601146761 -12.542582335189 0.0
-1.22478239269812 -13.1689390910981 0.0
-1.24055896253598 -13.8034795607448 0.0
-1.25526345692872 -14.4456735154514 0.0
-1.2689080130704 -15.0949943850514 0.0
-1.28151024696064 -15.7509181180646 0.0
-1.29309338034261 -16.4129197608179 0.0
-1.30368387572534 -17.0804659825618 0.0
-1.31330404325708 -17.7530007860254 0.0
-1.32195631914792 -18.4299202798336 0.0
-1.32959679084127 -19.1105309467279 0.0
-1.33610085457645 -19.7939857744963 0.0
-1.34123731483394 -20.479197709492 0.0
-1.34469013393244 -21.1647460445849 0.0
-1.34619015285374 -21.8488202469238 0.0
-1.34581037898174 -22.5292660527934 0.0
-1.34438606836089 -23.2037385928627 0.0
0 0 0.0
-0.0316079022635104 -0.0063414106172995 0.0
-0.0675611057476609 -0.0516076116083005 0.0
-0.105850888418412 -0.128365041250176 0.0
-0.144544742892339 -0.232430954488716 0.0
-0.182547527154707 -0.361830511504671 0.0
-0.219487604904187 -0.515614651292646 0.0
-0.255347823675834 -0.693189241203945 0.0
-0.290210308844898 -0.894045992918781 0.0
-0.324152959966369 -1.11768140562177 0.0
-0.357226979221624 -1.36357994874653 0.0
-0.389460941508414 -1.63121446714326 0.0
-0.420869112346109 -1.92004991355304 0.0
-0.451457949895859 -2.2295466801508 0.0
-0.481230083028984 -2.55916279583164 0.0
-0.510186434382261 -2.90835517374841 0.0
-0.538327245756905 -3.27658024898525 0.0
-0.565652527335696 -3.66329427485921 0.0
-0.592162232983439 -4.06795344722045 0.0
-0.617856317069639 -4.49001394962833 0.0
-0.642734745530459 -4.92893196557312 0.0
-0.666797491830412 -5.38416367862113 0.0
-0.690044529072697 -5.85516526910457 0.0
-0.712475821423087 -6.34139291071294 0.0
-0.734091315170519 -6.84230276859353 0.0
-0.754890929220135 -7.3573510005615 0.0
-0.774874545412476 -7.88599376399093 0.0
-0.794042000496053 -8.42768723265764 0.0
-0.812393084031395 -8.98188763020606 0.0
-0.829927550428319 -9.54805129001143 0.0
-0.846645159341203 -10.1256347548541 0.0
-0.862545767459419 -10.7140949335077 0.0
-0.877629506863904 -11.312889333923 0.0
-0.891897100472318 -11.9214763920062 0.0
-0.905350381947564 -12.5393159074181 0.0
-0.917993100619769 -13.1658695777801 0.0
-0.92983208954966 -13.8006015822605 0.0
-0.940878832773219 -14.4429790941385 0.0
-0.951151341795534 -15.092472485382 0.0
-0.960675967551258 -15.7485548024959 0.0
-0.969488223176982 -16.4106997975077 0.0
-0.977630750498723 -17.0783772852779 0.0
-0.985145196173444 -17.7510436258814 0.0
-0.992053367153072 -18.4281232517855 0.0
-0.998323179611144 -19.1089738997512 0.0
-1.00382036356428 -19.7928240208192 0.0
-1.0082635505508 -20.4786693347814 0.0
-1.01123168285235 -21.1651260720263 0.0
-1.0123055769271 -21.8502747108448 0.0
-1.01141007302007 -22.5315893791692 0.0
-1.00928189924141 -23.2060669408315 0.0
0 0 0.0
-0.0209584480727812 -0.00331138816245013 0.0
-0.0447484600667825 -0.0462842754489148 0.0
-0.0701512611993399 -0.121858083938027 0.0
-0.095921783438159 -0.225572308056964 0.0
-0.121293341266576 -0.355036515665053 0.0
-0.145969519169171 -0.509023501235308 0.0
-0.169914155354966 -0.686815796242897 0.0
-0.193178344480737 -0.887870061876208 0.0
-0.215818363427942 -1.11168157592642 0.0
-0.237873053436233 -1.35774157719323 0.0
-0.259364574898764 -1.62552917743304 0.0
-0.280304152181528 -1.91451343713186 0.0
-0.30069693325353 -2.22415704289257 0.0
-0.320545045086459 -2.55391917296277 0.0
-0.339849252014569 -2.90325726398787 0.0
-0.358609765968601 -3.27162796597592 0.0
-0.376826605985272 -3.65848760908127 0.0
-0.394499740609721 -4.06329241078417 0.0
-0.411629135119243 -4.48549855787595 0.0
-0.42821476113804 -4.92456223349252 0.0
-0.444256593186974 -5.37993962257566 0.0
-0.459754601262602 -5.85108691023177 0.0
-0.474708742038548 -6.33746027874654 0.0
-0.489118949004796 -6.83851590556224 0.0
-0.502985121551244 -7.35370996363316 0.0
-0.516307113786066 -7.88249862595159 0.0
-0.529084725629594 -8.42433807714239 0.0
-0.541317701733634 -8.9786845366821 0.0
-0.553005748606518 -9.54499430044278 0.0
-0.564148587715467 -10.1227238097651 0.0
-0.574746073089921 -10.7113297598001 0.0
-0.584798416668386 -11.3102692607161 0.0
-0.594306583196543 -11.9190000653072 0.0
-0.603272937005344 -12.5369808726834 0.0
-0.611702239895592 -13.1636717075934 0.0
-0.619603100042287 -13.7985343558359 0.0
-0.626989931259136 -14.4410328057541 0.0
-0.633885354250914 -15.0906336015271 0.0
-0.640322678347813 -15.7468059481901 0.0
-0.646347520504405 -16.4090212871872 0.0
-0.652016578383421 -17.0767517632295 0.0
-0.657389918786774 -17.7494661730827 0.0
-0.662511018432864 -18.4266197896253 0.0
-0.667367559612113 -19.107629452788 0.0
-0.671829990012558 -19.7918163338894 0.0
-0.675582753461076 -20.4782883076815 0.0
-0.678103328164588 -21.1657349826111 0.0
-0.678795494670356 -21.8521511356143 0.0
-0.677378890558735 -22.534620692872 0.0
-0.674452248234597 -23.2094289972108 0.0
0 0 0.0
-0.0104469388211557 -0.00155148289605769 0.0
-0.02229008490511 -0.0431594281827538 0.0
-0.034953649860624 -0.11799421849847 0.0
-0.0478290992207189 -0.221466187153263 0.0
-0.060524222722866 -0.350953375593227 0.0
-0.0728768216326348 -0.505059203500967 0.0
-0.0848608259054299 -0.682984550045616 0.0
-0.0965000893404302 -0.88416029282724 0.0
-0.107823843782894 -1.1080795241301 0.0
-0.118852935314234 -1.35423756052464 0.0
-0.129599428934561 -1.62211759084482 0.0
-0.140069487182027 -1.9111914014315 0.0
-0.150265957713131 -2.22092321729702 0.0
-0.160190027279914 -2.55077299295612 0.0
-0.169842128062795 -2.90019852094709 0.0
-0.179222383700833 -3.26865659868154 0.0
-0.18833080841177 -3.65560360986502 0.0
-0.197167386325325 -4.0604957878728 0.0
-0.205732097702409 -4.48278932293827 0.0
-0.214024923670292 -4.92194039954522 0.0
-0.222045842932995 -5.37740520581405 0.0
-0.229794825363051 -5.84863993329936 0.0
-0.237271823773247 -6.33510077454362 0.0
-0.244476763977569 -6.83624392106335 0.0
-0.251409533313438 -7.35152556285111 0.0
-0.258069968746258 -7.8804018902909 0.0
-0.264457847614927 -8.42232909985609 0.0
-0.270572887410853 -8.97676340579287 0.0
-0.276414766349332 -9.54316106107073 0.0
-0.281983184695681 -10.1209783921214 0.0
-0.287277998709058 -10.7096718531432 0.0
-0.292299475322825 -11.3086981067768 0.0
-0.297048736219738 -11.917514138475 0.0
-0.301528482981861 -12.5355774117587 0.0
-0.305744115193925 -13.1623460713969 0.0
-0.309705358953664 -13.7972792037186 0.0
-0.313428491004206 -14.4398371733747 0.0
-0.316939131283834 -15.089482083363 0.0
-0.320275310204426 -15.7456784588255 0.0
-0.323489972235109 -16.4078943206687 0.0
-0.326651054396215 -17.0756027831126 0.0
-0.329835485194122 -17.7482837820232 0.0
-0.333110633300392 -18.4254233994719 0.0
-0.336493517171053 -19.1065020419429 0.0
-0.339878531764292 -19.7909489067255 0.0
-0.342940017205532 -20.4780182076822 0.0
-0.345064261303905 -21.166527210287 0.0
-0.345446821139006 -21.8544365117471 0.0
-0.343526752697458 -22.5384330522611 0.0
-0.339713546121023 -23.2139896375902 0.0
0 0 0.0
3.26734287344507E-11 -0.000974106954985663 0.0
8.68297642987736E-11 -0.0421291204659901 0.0
1.60936592177863E-10 -0.116713149971565 0.0
2.54173348167297E-10 -0.220099248248346 0.0
3.60836818757981E-10 -0.349591335632625 0.0
4.63707499481769E-10 -0.503736175550598 0.0
5.24352138098205E-10 -0.681706232186 0.0
4.68594940628009E-10 -0.882922966142143 0.0
1.65622231207418E-10 -1.1068784599348 0.0
-6.00357132063412E-10 -1.35306937803507 0.0
-2.16573180916724E-09 -1.6209803206106 0.0
-5.02748728758995E-09 -1.91008402773018 0.0
-9.87934875573693E-09 -2.21984526536 0.0
-1.76264146958816E-08 -2.54972426201525 0.0
-2.9345070526321E-08 -2.8991789363259 0.0
-4.61306721294408E-08 -3.26766613830244 0.0
-6.87395674686675E-08 -3.6546422712427 0.0
-9.68817555763168E-08 -4.05956357512336 0.0
-1.27954793385787E-07 -4.48188624296 0.0
-1.54931158041771E-07 -4.92106646220497 0.0
-1.63030951502718E-07 -5.37656042593873 0.0
-1.24755249381048E-07 -5.84782433363294 0.0
7.12685235826349E-09 -6.33431438929798 0.0
3.08861160869256E-07 -6.83548679962138 0.0
8.96984090364983E-07 -7.35079777268459 0.0
1.94025543182041E-06 -7.87970351718433 0.0
3.66893732131612E-06 -8.42166024192501 0.0
6.37470914954807E-06 -8.97612415532273 0.0
1.03890109128812E-05 -9.54255146462356 0.0
1.6019191793587E-05 -10.1203983744522 0.0
2.34096311813592E-05 -10.7091210842168 0.0
3.22783008492311E-05 -11.3081757840192 0.0
4.14580063915482E-05 -11.9170186496735 0.0
4.81472518372161E-05 -12.5351058407515 0.0
4.67527554271485E-05 -13.1618935146492 0.0
2.71938887795309E-05 -13.7968378914317 0.0
-2.74423407151669E-05 -14.4393954513565 0.0
-0.000143924294732201 -15.0890234399476 0.0
-0.000362396729231107 -15.7451810201646 0.0
-0.000739775390329656 -16.4073316598951 0.0
-0.0013515062360599 -17.0749476066342 0.0
-0.00228846884430345 -17.7475172299478 0.0
-0.00364257030207915 -18.4245544259139 0.0
-0.00546916648418921 -19.1056029539547 0.0
-0.00770908546762672 -19.790211039964 0.0
-0.0100605845060729 -20.4778162808216 0.0
-0.0118427945163043 -21.1674383881537 0.0
-0.0120150225707367 -21.8570945260847 0.0
-0.00963795128136558 -22.5430902711153 0.0
-0.00485424787525046 -23.2199208918938 0.0
0 0 0.0
0.010446938883507 -0.00155148292588625 0.0
0.0222900850714617 -0.0431594282320034 0.0
0.0349536501698906 -0.117994218559788 0.0
0.0478290997104106 -0.221466187214985 0.0
0.0605242234197185 -0.350953375632326 0.0
0.0728768225305484 -0.505059203474128 0.0
0.084860826924752 -0.682984549876877 0.0
0.0965000902592105 -0.884160292391306 0.0
0.107823844127775 -1.10807952323132 0.0
0.118852934196523 -1.35423755887325 0.0
0.129599424817251 -1.62211758803512 0.0
0.140069477569001 -1.91119139693218 0.0
0.150265938767489 -2.22092321047257 0.0
0.160189993412149 -2.55077298315291 0.0
0.169842071593292 -2.90019850769797 0.0
0.179222294811718 -3.26865658211293 0.0
0.188330675783063 -3.65560359142842 0.0
0.197167199127353 -4.06049577156925 0.0
0.205731850020681 -4.48278931725222 0.0
0.21402462299553 -4.92194042033889 0.0
0.22204552506215 -5.37740528042638 0.0
0.229794578882696 -5.84864010599138 0.0
0.237271828092881 -6.33510111314703 0.0
0.244477345330651 -6.83624452408157 0.0
0.251411242638952 -7.35152656512284 0.0
0.258073682831542 -7.88040346335864 0.0
0.264464888556902 -8.42233143999132 0.0
0.270585142592603 -8.97676669773111 0.0
0.276434767683395 -9.54316539838549 0.0
0.28201406621328 -10.1209836253933 0.0
0.287323188329316 -10.7096773246127 0.0
0.292361881101733 -11.3087022158342 0.0
0.297129050710565 -11.9175136686935 0.0
0.301622045460785 -12.535566542854 0.0
0.30583554281418 -13.162315009296 0.0
0.30975990552788 -13.7972124078803 0.0
0.313378873474113 -14.4397112744746 0.0
0.316666502121887 -15.0892638183018 0.0
0.31958338782212 -15.7453233881205 0.0
0.322072515405414 -16.4073478768429 0.0
0.324055701879017 -17.0748065700629 0.0
0.325432993956894 -17.7471924216106 0.0
0.326090487596603 -18.4240411882405 0.0
0.325929013584071 -19.1049539660154 0.0
0.324938676817134 -19.7896012977965 0.0
0.323352437369905 -20.4776391053443 0.0
0.321871109704984 -21.1683846710706 0.0
0.321783769831418 -21.8600568668163 0.0
0.324532253596824 -22.5486427847038 0.0
0.330368191664833 -23.2274163818689 0.0
0 0 0.0
0.0209584481263534 -0.00331138822009432 0.0
0.0447484602116731 -0.046284275544439 0.0
0.070151261471487 -0.121858084057352 0.0
0.0959217838727041 -0.225572308177456 0.0
0.121293341889632 -0.35503651574196 0.0
0.145969519978584 -0.50902350118446 0.0
0.169914156284568 -0.686815795916662 0.0
0.193178345339598 -0.887870061030985 0.0
0.215818363803475 -1.11168157418165 0.0
0.237873052548003 -1.35774157398506 0.0
0.259364571389806 -1.62552917197164 0.0
0.280304143838517 -1.91451342838214 0.0
0.300696916660623 -2.2241570296154 0.0
0.320545015247065 -2.55391915388142 0.0
0.339849202031283 -2.903257238185 0.0
0.35860968696913 -3.27162793368393 0.0
0.376826487641691 -3.65848757310363 0.0
0.394499572844975 -4.06329237887583 0.0
0.411628911956141 -4.48549854650444 0.0
0.428214488145691 -4.92456227346967 0.0
0.444256300623972 -5.379939767037 0.0
0.459754365769155 -5.85108724524309 0.0
0.474708720469881 -6.33746093626516 0.0
0.489119428450354 -6.83851707730066 0.0
0.502986589213964 -7.35371191216064 0.0
0.516310348258242 -7.88250168554461 0.0
0.529090905633257 -8.42434263069046 0.0
0.541328517152537 -8.97869094542715 0.0
0.553023478007601 -9.54500274946354 0.0
0.564176071479661 -10.1227340130896 0.0
0.574786455118584 -10.7113404447348 0.0
0.584854442476461 -11.3102773230225 0.0
0.594379119886198 -11.9189992601846 0.0
0.603358215264762 -12.5369598920853 0.0
0.61178711123157 -13.1636115131933 0.0
0.619657371715331 -13.7984047259482 0.0
0.626954636323142 -14.4407882754026 0.0
0.63365574076528 -15.0902094276445 0.0
0.639724964107753 -15.7461155773982 0.0
0.64510942535362 -16.407958306325 0.0
0.649733968926664 -17.0752019224105 0.0
0.653496732335082 -17.7473395375181 0.0
0.656268931423213 -18.4239204816162 0.0
0.657909246224606 -19.1045909433616 0.0
0.658321659908772 -19.7891353497755 0.0
0.657617200455574 -20.4774518014739 0.0
0.656435592133588 -21.1692643394215 0.0
0.656288059594809 -21.8632111449725 0.0
0.659267972901308 -22.5551192180394 0.0
0.666236936353028 -23.2367128026498 0.0
0 0 0.0
0.031607902303147 -0.00634141069883368 0.0
0.0675611058583392 -0.0516076117443005 0.0
0.105850888631058 -0.128365041420987 0.0
0.144544743237768 -0.232430954662006 0.0
0.182547527657131 -0.3618305116164 0.0
0.219487605566378 -0.515614651222449 0.0
0.255347824451139 -0.693189240740687 0.0
0.290210309589077 -0.894045991713914 0.0
0.324152960360096 -1.11768140313048 0.0
0.357226978652712 -1.3635799441611 0.0
0.389460938902462 -1.63121445933156 0.0
0.420869105937425 -1.92004990103012 0.0
0.451457936940689 -2.22954666113682 0.0
0.481230059485823 -2.55916276848854 0.0
0.510186394627923 -2.90835513674618 0.0
0.538327182484306 -3.27658020263071 0.0
0.565652431906466 -3.66329422312794 0.0
0.592162096706568 -4.06795340116216 0.0
0.617856134169523 -4.49001393275065 0.0
0.642734518974992 -4.92893202190789 0.0
0.66679724372029 -5.38416388416064 0.0
0.690044317922423 -5.85516574701505 0.0
0.712475769301604 -6.34139384994621 0.0
0.734091648102863 -6.84230444383381 0.0
0.754892034062768 -7.35735378828268 0.0
0.774877044857212 -7.88599814393039 0.0
0.794046843685418 -8.42769375513357 0.0
0.812401641523998 -8.98189681606155 0.0
0.82994168601581 -9.54806341010156 0.0
0.84666722337154 -10.1256494087092 0.0
0.862578411422683 -10.7141103119454 0.0
0.877675150453102 -11.3129010102084 0.0
0.891956783194842 -11.9214754477416 0.0
0.905421596294068 -12.5392861783277 0.0
0.918066033014791 -13.1657838309604 0.0
0.929883501742906 -13.8004165631059 0.0
0.9408626374636 -14.4426296959517 0.0
0.950984843066006 -15.0918659385108 0.0
0.960220899707647 -15.7475669765131 0.0
0.968526392621776 -16.4091778153357 0.0
0.975835671552155 -17.0761562526476 0.0
0.982054266712356 -17.7479913516549 0.0
0.987050833980418 -18.4242367402357 0.0
0.990654219408267 -19.1045663070758 0.0
0.992679850144399 -19.7888550811898 0.0
0.993065596725279 -20.4772428239201 0.0
0.99226769509569 -21.1699656251297 0.0
0.991917353281346 -21.8663857793324 0.0
0.994914610038201 -22.5625091302033 0.0
1.00309638439616 -23.2481234434686 0.0
0 0 0.0
0.0424895324612171 -0.0108030945804725 0.0
0.0909536838530855 -0.059309662575777 0.0
0.142339018234195 -0.137608809469344 0.0
0.19396788369132 -0.242055412712813 0.0
0.244515034803134 -0.371314285757639 0.0
0.293627283788851 -0.524808786868866 0.0
0.341340707914945 -0.702088408501134 0.0
0.387766691366566 -0.902678760743656 0.0
0.432994718494428 -1.12607432844731 0.0
0.477080337020795 -1.37175054644283 0.0
0.520053648901579 -1.63917258649749 0.0
0.56192935690918 -1.92780051195849 0.0
0.602713990855498 -2.23709202602112 0.0
0.642410144734073 -2.56650382401904 0.0
0.681018693322026 -2.91549221880582 0.0
0.718539842064599 -3.28351340381311 0.0
0.754973578762587 -3.67002355167557 0.0
0.79031984574821 -4.07447884441802 0.0
0.824578594132266 -4.49633547908914 0.0
0.857749794492937 -4.93504966673882 0.0
0.889833435055396 -5.39007763106773 0.0
0.920829518768363 -5.86087560825923 0.0
0.950738062668431 -6.34689984759672 0.0
0.979559100038617 -6.84760661151666 0.0
1.00729268493144 -7.36245217283128 0.0
1.03393889815974 -7.89089280550795 0.0
1.05949785316004 -8.43238476334224 0.0
1.0839696987932 -8.98638423792779 0.0
1.10735461381453 -9.55234728343465 0.0
1.12965278403072 -10.1297296910228 0.0
1.15086434762178 -10.7179867908593 0.0
1.1709892862691 -11.3165731561784 0.0
1.19002722913968 -11.9249421846393 0.0
1.20797712297549 -12.5425455428971 0.0
1.22483670387901 -13.1688324902878 0.0
1.24060168328347 -13.8032491624429 0.0
1.25526452792236 -14.4452380202912 0.0
1.26881266072838 -15.0942378938646 0.0
1.28122581602023 -15.7496854336616 0.0
1.29247210303365 -16.4110194294686 0.0
1.30250203753869 -17.0776905153656 0.0
1.31123929972068 -17.7491805839133 0.0
1.31856684727197 -18.4250391689259 0.0
1.32430828556157 -19.1049486050861 0.0
1.32821380482614 -19.7888371106925 0.0
1.33002225347133 -20.477046058345 0.0
1.32984998679811 -21.1703877511073 0.0
1.32921453983474 -21.8693349491578 0.0
1.33192218648309 -22.5707285052131 0.0
1.34139389121389 -23.2620923349293 0.0
0 0 0.0
0.0537391877327216 -0.0169608705698019 0.0
0.115223852972103 -0.0696557660105166 0.0
0.179943954323168 -0.149701754610226 0.0
0.24445664441614 -0.254444375119608 0.0
0.307400058057285 -0.383451491558276 0.0
0.368564072539652 -0.536574095856351 0.0
0.42805945300252 -0.713493421441531 0.0
0.486011918934287 -0.91375759272637 0.0
0.542507790490421 -1.13685509655851 0.0
0.597597538942862 -1.38225106706758 0.0
0.651307380232907 -1.6494026416106 0.0
0.703649764588548 -1.93776495895193 0.0
0.754630055784906 -2.24679305644021 0.0
0.804250305506282 -2.57594232766976 0.0
0.852511159566475 -2.92466850642953 0.0
0.899412738639437 -3.29242755582379 0.0
0.944955005402346 -3.67867557081389 0.0
0.989137898461184 -4.08286871556686 0.0
1.03196137074319 -4.50446318918961 0.0
1.07342539418399 -4.94291520966937 0.0
1.113529955611 -5.39768100804103 0.0
1.1522750524667 -5.86821682768805 0.0
1.18966069060636 -6.35397892556497 0.0
1.22568688425597 -6.85442357284246 0.0
1.26035365766432 -7.36900705213804 0.0
1.29366104785677 -7.89718564719156 0.0
1.32560910770182 -8.43841561855528 0.0
1.35619790800538 -8.99215315551276 0.0
1.38542753639146 -9.55785428998706 0.0
1.41329808915238 -10.1349747528454 0.0
1.43980964986114 -10.722969747454 0.0
1.46496224510212 -11.3212936112299 0.0
1.48875576287637 -11.9293993365278 0.0
1.51118981253095 -12.5467379332931 0.0
1.53226349522672 -13.1727576472604 0.0
1.55197503806213 -13.8069031145663 0.0
1.5703212158861 -14.4486146607823 0.0
1.5872964272224 -15.0973281759148 0.0
1.60289116984619 -15.7524763779204 0.0
1.61708942110523 -16.4134929030676 0.0
1.6298639196059 -17.0798217498172 0.0
1.64116753339368 -17.7509363845034 0.0
1.65091699906221 -18.4263765318163 0.0
1.65896487800138 -19.1058169271411 0.0
1.66505234801456 -19.7891960580495 0.0
1.66875858288763 -20.4769693514159 0.0
1.66971807454079 -21.170486590849 0.0
1.66890843080713 -21.8717347343534 0.0
1.67093015346478 -22.5795529899153 0.0
1.68176567909969 -23.2792832152517 0.0
0 0 0.0
0.0655763125137373 -0.0252370783442748 0.0
0.140794244458228 -0.0830021853729454 0.0
0.21904186787113 -0.164742728154893 0.0
0.296247340537468 -0.269560914701721 0.0
0.371364403061596 -0.398188852063033 0.0
0.444446947705957 -0.550875179125398 0.0
0.515657077504069 -0.727384304414673 0.0
0.585103629729141 -0.927272217252512 0.0
0.65285341502146 -1.15001897193066 0.0
0.718941841962827 -1.39507950562844 0.0
0.783386436700978 -1.66190388891539 0.0
0.846195114704905 -1.94994302542674 0.0
0.907371120417274 -2.25864972335712 0.0
0.966915605052359 -2.58747830221175 0.0
1.02482887836328 -2.93588402707447 0.0
1.08111095991506 -3.30332267857905 0.0
1.13576179696592 -3.68925029259318 0.0
1.18878133702272 -4.09312302127049 0.0
1.24016954423322 -4.5143970666528 0.0
1.28992639769686 -4.95252865276126 0.0
1.33805188608876 -5.40697401638021 0.0
1.38454600299333 -5.8771894060387 0.0
1.42940874365959 -6.36263108373568 0.0
1.47264010281645 -6.86275532603375 0.0
1.51424007306699 -7.37701842129158 0.0
1.55420864355167 -7.90487665856522 0.0
1.59254579882401 -8.44578630127751 0.0
1.62925151819766 -8.99920353514332 0.0
1.66432577626213 -9.56458437505122 0.0
1.69776854592466 -10.1413845098711 0.0
1.72957980633347 -10.7290590582373 0.0
1.75975955947688 -11.3270622039888 0.0
1.78830786113198 -11.9348466805124 0.0
1.81522487381353 -12.551863084664 0.0
1.8405109502356 -13.1775590329289 0.0
1.86416675226507 -13.8113782401456 0.0
1.88619339482442 -14.4527597268452 0.0
1.90659255950011 -15.1011375797793 0.0
1.92536641560385 -15.7559420496672 0.0
1.94251693849818 -16.4166033749851 0.0
1.95804372507917 -17.0825606781712 0.0
1.97193822676641 -17.7532802193421 0.0
1.98417072772338 -18.4282901689143 0.0
1.99465968623085 -19.1072487654072 0.0
2.00321645132715 -19.7900739616308 0.0
2.00940731581246 -20.477220051721 0.0
2.01239182033241 -21.1703598234132 0.0
2.01198980119704 -21.8732220360355 0.0
2.01293410258755 -22.5884950189057 0.0
2.02522158861539 -23.3007248497599 0.0
0 0 0.0
0.0784016326431797 -0.0363186153207104 0.0
0.168305565516228 -0.0997790644066132 0.0
0.260030357749489 -0.182750522637758 0.0
0.349489934628236 -0.287311170563116 0.0
0.436508129882283 -0.415464946897721 0.0
0.521398981515561 -0.567680556028901 0.0
0.604272657750249 -0.743744443144446 0.0
0.685193795477066 -0.943215196184339 0.0
0.764190496689958 -1.16556272967549 0.0
0.841275736426273 -1.41023466210439 0.0
0.916454936084158 -1.67667595434332 0.0
0.98973020232833 -1.96433464758159 0.0
1.06110222337314 -2.27266205300365 0.0
1.13057115014897 -2.60111178632881 0.0
1.19813696285923 -2.94913880996859 0.0
1.26379960921672 -3.31619878997277 0.0
1.3275590462443 -3.70174772679559 0.0
1.38941524679178 -4.10524176662382 0.0
1.44936819567441 -4.52613711431662 0.0
1.50741788431832 -4.96388999809264 0.0
1.56356430619834 -5.41795665828044 0.0
1.61780745304019 -5.88779334613384 0.0
1.67014731114516 -6.37285632582553 0.0
1.72058385718487 -6.87260187570894 0.0
1.76911705301072 -7.38648628540381 0.0
1.81574683936049 -7.91396584408472 0.0
1.8604731289165 -8.45449681287461 0.0
1.90329580016912 -9.00753537054705 0.0
1.94421469524796 -9.57253751686117 0.0
1.98322962768254 -10.1489589120573 0.0
2.02034041042056 -10.7362546251303 0.0
2.05554692090427 -11.3338787592746 0.0
2.08884922907377 -11.9412839238009 0.0
2.12024782600859 -12.5579205338004 0.0
2.149744004873 -13.1832359514166 0.0
2.17734045937345 -13.8166735501465 0.0
2.20304217167371 -14.4576719074483 0.0
2.22685764815034 -15.1056645401918 0.0
2.2488004978424 -15.7600809426238 0.0
2.26889118438837 -16.4203502230051 0.0
2.2871583668597 -17.0859095998281 0.0
2.30363847998064 -17.7562213986459 0.0
2.3183697092025 -18.4308063407174 0.0
2.33137474403815 -19.1093041352259 0.0
2.34260144975303 -19.791606172824 0.0
2.35183563659072 -20.4780969493571 0.0
2.3581672901197 -21.1703770222535 0.0
2.35974518408935 -21.8735557352103 0.0
2.35961290388855 -22.5965985099692 0.0
2.37356679569898 -23.3280382657774 0.0
0 0 0.0
0.0930743673088378 -0.0513745997681362 0.0
0.198770879847432 -0.120379516733241 0.0
0.303185252360406 -0.203537266983967 0.0
0.404138352959694 -0.307555146262337 0.0
0.50288899170478 -0.435238051166145 0.0
0.599514092969688 -0.586966312435248 0.0
0.694036118764664 -0.762566121345203 0.0
0.786430607139739 -0.961583423221474 0.0
0.876676940638059 -1.18348558476773 0.0
0.96476156307808 -1.42771643230161 0.0
1.05067710594663 -1.69371894091779 0.0
1.13441995244908 -1.98093993780237 0.0
1.21598849762588 -2.28883012557425 0.0
1.2953821037031 -2.61684282714534 0.0
1.37260055581999 -2.96443287981874 0.0
1.44764380394977 -3.33105590177156 0.0
1.52051185194299 -3.7161678786165 0.0
1.59120471504202 -4.11922495393563 0.0
1.65972240612733 -4.53968333362403 0.0
1.72606493228751 -4.97699924740097 0.0
1.79023229386067 -5.43062893659427 0.0
1.85222448281862 -5.90002865271416 0.0
1.9120414792353 -6.38465465932169 0.0
1.96968324521685 -6.88396323304709 0.0
2.02514971590386 -7.39741066022906 0.0
2.07844078744993 -7.92445322452901 0.0
2.12955630257173 -8.46454717844139 0.0
2.17849603572246 -9.01714868799539 0.0
2.22525968264699 -9.58171373520271 0.0
2.26984686370192 -10.1576979572585 0.0
2.31225715773929 -10.744556395997 0.0
2.35249019462414 -11.3417431274961 0.0
2.39054585073171 -11.9487107434911 0.0
2.4264246140461 -12.5649096693085 0.0
2.46012821414613 -13.1897873366733 0.0
2.49166064643772 -13.8227872979323 0.0
2.52102975594411 -14.4633484904329 0.0
2.54824957582493 -15.1109050651454 0.0
2.5733436243726 -15.7648875168001 0.0
2.59634932012806 -16.4247263855661 0.0
2.61732353010316 -17.089860567469 0.0
2.63634881343673 -17.7597540315888 0.0
2.65353919878933 -18.4339263091554 0.0
2.66903996919334 -19.1120140906916 0.0
2.68301775908142 -19.7938728001615 0.0
2.69555192210753 -20.4798820293188 0.0
2.70662477725438 -21.1712904546157 0.0
2.71349769233961 -21.8730769977804 0.0
2.71395471958788 -22.6021787446062 0.0
2.7304449524925 -23.3637467854821 0.0
0 0 0.0
0.111834636330537 -0.072558275732345 0.0
0.233850903728008 -0.144640821826553 0.0
0.347878411998082 -0.2265636418197 0.0
0.460117376972905 -0.330272599887975 0.0
0.570493181777694 -0.45746949298318 0.0
0.678874691392495 -0.608734566960195 0.0
0.785072568286737 -0.783851279034584 0.0
0.888962238804133 -0.982379995519498 0.0
0.9904713002333 -1.20378942006758 0.0
1.08956232938824 -1.44752592891296 0.0
1.18621761716761 -1.71303340653096 0.0
1.28042954566674 -1.99975915695056 0.0
1.37219520741716 -2.30715405009281 0.0
1.46151369010713 -2.63467146481202 0.0
1.54838482604268 -2.98176624818919 0.0
1.63280867114886 -3.34789401532231 0.0
1.71478531545188 -3.73251074666521 0.0
1.79431482901622 -4.13507258183186 0.0
1.87139725552902 -4.55503572417557 0.0
1.9460326180463 -4.99185640176237 0.0
2.0182209244217 -5.44499085449074 0.0
2.08796216887446 -5.9138953320264 0.0
2.15525632898921 -6.39802609501562 0.0
2.22010335795288 -6.89683941536108 0.0
2.28250317170525 -7.40979157198611 0.0
2.34245563066949 -7.93633883746626 0.0
2.39996051628961 -8.47593744859597 0.0
2.4550175041999 -9.02804355053896 0.0
2.50762613913415 -9.59211309980892 0.0
2.55778582258571 -10.1676017063085 0.0
2.60549583404157 -10.7539643899378 0.0
2.65075542199019 -11.3506552247896 0.0
2.69356402380221 -11.9571268472035 0.0
2.73392170607223 -12.5728298188244 0.0
2.77182996092251 -13.1972118715212 0.0
2.80729305021588 -13.8297171310133 0.0
2.84032015861016 -14.4697855397098 0.0
2.87092869674759 -15.1168529021438 0.0
2.89914918722691 -15.77035230177 0.0
2.92503227155828 -16.4297181296665 0.0
2.94865851360312 -17.0943948341986 0.0
2.97015189198885 -17.7638536558053 0.0
2.98969813966262 -18.4376244263993 0.0
3.00757015350154 -19.115350516322 0.0
3.02415885579677 -19.7969121027183 0.0
3.04003121158355 -20.4825988832163 0.0
3.0558107624342 -21.1739601802691 0.0
3.07307473191554 -21.873759569836 0.0
3.08125823969639 -22.6028968220864 0.0
3.10434505702419 -23.4115356005958 0.0
0 0 0.0
0.146718009560742 -0.103548280690604 0.0
0.270198626621085 -0.169503507783366 0.0
0.39370593189916 -0.252121125636629 0.0
0.517150857585712 -0.355354604013938 0.0
0.63930007342059 -0.482207471095609 0.0
0.759560033695334 -0.633004186018488 0.0
0.87751197311006 -0.80761671918437 0.0
0.992940744014521 -1.00561348273708 0.0
1.10573475518374 -1.2264787760715 0.0
1.21584251730298 -1.4696652110262 0.0
1.32324189323187 -1.73462022249394 0.0
1.42792451161097 -2.02079262268537 0.0
1.52988776368884 -2.32763391884956 0.0
1.62913118784074 -2.65459771049168 0.0
1.72565495815578 -3.00113890414795 0.0
1.81945933990064 -3.36671311794642 0.0
1.91054453629706 -3.75077632178677 0.0
1.998910673517 -4.152784644925 0.0
2.0845578214928 -4.57219428358024 0.0
2.16748601555655 -5.0084614613554 0.0
2.24769526999229 -5.46104241502663 0.0
2.32518558304103 -5.92939339115888 0.0
2.3999569344907 -6.41297064609769 0.0
2.47200927641539 -6.91123044500309 0.0
2.541342516713 -7.42362905623919 0.0
2.60795649452025 -7.94962273648358 0.0
2.67185094674341 -8.4886676997877 0.0
2.73302546629539 -9.04022006069478 0.0
2.79147945592273 -9.60373573759509 0.0
2.84721208790491 -10.1786702982215 0.0
2.90022229110204 -10.7644787255836 0.0
2.95050880510299 -11.3606150817309 0.0
2.99807036946015 -11.9665320521369 0.0
3.04290615754554 -12.5816803711246 0.0
3.08501662297706 -13.205508167746 0.0
3.12440500538134 -13.8374603453572 0.0
3.16107984467956 -14.4769782353344 0.0
3.19505898499304 -15.1234999746453 0.0
3.22637571756369 -15.7764623799321 0.0
3.25508796730293 -16.4353056304678 0.0
3.28129177111207 -17.0994828068675 0.0
3.30514128794838 -17.7684782487777 0.0
3.32687818753275 -18.4418395444552 0.0
3.3468813191059 -19.1192430802427 0.0
3.36573727787545 -19.8005883730546 0.0
3.38443856369602 -20.4863390830148 0.0
3.40453302330562 -21.1776334499063 0.0
3.42965677612363 -21.8800670217409 0.0
3.46843638330337 -22.5989133518841 0.0
3.52089402285213 -23.4759694903007 0.0

TENSORS stresses double
-197505.012913815 -84645.0055344921 -19913.1308895595 0.0 0.0 0.0 0.0 0.0 0.0
-146106.762269705 5492.71721323163 -2881.7321934952 0.0 0.0 0.0 0.0 0.0 0.0
-137554.156393743 -4308.51541388375 -305.957048971151 0.0 0.0 0.0 0.0 0.0 0.0
-136728.443601266 -2427.61020943709 -244.328514029161 0.0 0.0 0.0 0.0 0.0 0.0
-136362.975459545 -3315.99127720734 -187.732971847434 0.0 0.0 0.0 0.0 0.0 0.0
-134616.201971928 -3323.47514804111 -232.886088208591 0.0 0.0 0.0 0.0 0.0 0.0
-132331.52652873 -3373.68903238917 -256.526804611948 0.0 0.0 0.0 0.0 0.0 0.0
-129661.509502115 -3337.48148297077 -274.199747126671 0.0 0.0 0.0 0.0 0.0 0.0
-126803.618957081 -3281.79855084965 -283.465013156531 0.0 0.0 0.0 0.0 0.0 0.0
-123850.014329859 -3211.86082726071 -288.260469822183 0.0 0.0 0.0 0.0 0.0 0.0
-120853.70995247 -3136.68419598689 -290.451512848724 0.0 0.0 0.0 0.0 0.0 0.0
-117839.630529306 -3059.14768950449 -291.375899252984 0.0 0.0 0.0 0.0 0.0 0.0
-114819.179398754 -2980.82397063579 -291.715010433252 0.0 0.0 0.0 0.0 0.0 0.0
-111796.944218324 -2902.27875336924 -291.814294279483 0.0 0.0 0.0 0.0 0.0 0.0
-108774.542311786 -2823.72063741688 -291.827287613071 0.0 0.0 0.0 0.0 0.0 0.0
-105752.392845362 -2745.19911791767 -291.816651726925 0.0 0.0 0.0 0.0 0.0 0.0
-102730.510179243 -2666.71429655574 -291.804116141449 0.0 0.0 0.0 0.0 0.0 0.0
-99708.8111148648 -2588.25430001544 -291.795246766855 0.0 0.0 0.0 0.0 0.0 0.0
-96687.2167413257 -2509.80841141954 -291.79009655886 0.0 0.0 0.0 0.0 0.0 0.0
-93665.6748001458 -2431.36955630996 -291.787364464438 0.0 0.0 0.0 0.0 0.0 0.0
-90644.1575629743 -2352.93382492183 -291.785701735936 0.0 0.0 0.0 0.0 0.0 0.0
-87622.6557009587 -2274.49947881068 -291.783927405766 0.0 0.0 0.0 0.0 0.0 0.0
-84601.1746019335 -2196.06626307651 -291.780883858472 0.0 0.0 0.0 0.0 0.0 0.0
-81579.7344148617 -2117.63514603007 -291.775210089239 0.0 0.0 0.0 0.0 0.0 0.0
-78558.3736067112 -2039.2084394891 -291.765125867491 0.0 0.0 0.0 0.0 0.0 0.0
-75537.1554862953 -1960.79022935439 -291.74826961853 0.0 0.0 0.0 0.0 0.0 0.0
-72516.1769024125 -1882.38705459924 -291.721646538721 0.0 0.0 0.0 0.0 0.0 0.0
-69495.5776181522 -1804.00874970241 -291.681796402368 0.0 0.0 0.0 0.0 0.0 0.0
-66475.5473098073 -1725.66928459683 -291.625378653434 0.0 0.0 0.0 0.0 0.0 0.0
-63456.3242929812 -1647.38725824326 -291.550500880221 0.0 0.0 0.0 0.0 0.0 0.0
-60438.1753726992 -1569.18539245513 -291.459293318205 0.0 0.0 0.0 0.0 0.0 0.0
-57421.338943553 -1491.08786025839 -291.362456794961 0.0 0.0 0.0 0.0 0.0 0.0
-54405.9029203533 -1413.1135184091 -291.286765355862 0.0 0.0 0.0 0.0 0.0 0.0
-51391.5748377201 -1335.26203309441 -291.286723921313 0.0 0.0 0.0 0.0 0.0 0.0
-48377.2841282409 -1257.48853832072 -291.461612229252 0.0 0.0 0.0 0.0 0.0 0.0
-45360.539268551 -1179.6610976526 -291.9786723725 0.0 0.0 0.0 0.0 0.0 0.0
-42336.4535390015 -1101.49461509053 -293.101619582591 0.0 0.0 0.0 0.0 0.0 0.0
-39296.3709465879 -1022.45667795862 -295.219950514625 0.0 0.0 0.0 0.0 0.0 0.0
-36226.1037886389 -941.648420314737 -298.867141576607 0.0 0.0 0.0 0.0 0.0 0.0
-33103.9953517807 -857.682138773464 -304.702900799818 0.0 0.0 0.0 0.0 0.0 0.0
-29899.4313383551 -768.613524521453 -313.415029794454 0.0 0.0 0.0 0.0 0.0 0.0
-26573.1323138771 -672.043573319676 -325.472581011412 0.0 0.0 0.0 0.0 0.0 0.0
-23081.5902504766 -565.576867086897 -340.645396319676 0.0 0.0 0.0 0.0 0.0 0.0
-19389.1659766509 -447.876210174417 -357.223302504923 0.0 0.0 0.0 0.0 0.0 0.0
-15492.0064595708 -320.54569903615 -370.972014834227 0.0 0.0 0.0 0.0 0.0 0.0
-11456.7499244875 -190.879956889575 -374.109503748541 0.0 0.0 0.0 0.0 0.0 0.0
-7472.26870659291 -75.4374693543534 -355.067846997168 0.0 0.0 0.0 0.0 0.0 0.0
-3901.60737699818 -3.00395134262999 -300.531228207151 0.0 0.0 0.0 0.0 0.0 0.0
-1297.79735493163 -18.6648167525517 -204.342600164194 0.0 0.0 0.0 0.0 0.0 0.0
-111.442093468404 -80.1059947685978 -86.0685850506266 0.0 0.0 0.0 0.0 0.0 0.0
208.942472042719 160.446243798911 -33.3902586094977 0.0 0.0 0.0 0.0 0.0 0.0
-150546.625903334 -64519.9825300002 -13953.5145482878 0.0 0.0 0.0 0.0 0.0 0.0
-127299.446288293 2776.80978356267 -3591.68626891808 0.0 0.0 0.0 0.0 0.0 0.0
-130534.854300844 -1961.10118695015 -1072.10311449916 0.0 0.0 0.0 0.0 0.0 0.0
-124265.592576541 132.173204796862 -441.386422820277 0.0 0.0 0.0 0.0 0.0 0.0
-122260.254301821 129.62491383369 -469.311699724654 0.0 0.0 0.0 0.0 0.0 0.0
-120142.758179258 124.993817911127 -542.288785598532 0.0 0.0 0.0 0.0 0.0 0.0
-117868.121986126 76.1606431354521 -604.798494463354 0.0 0.0 0.0 0.0 0.0 0.0
-115414.350956885 42.8584397144077 -643.626897545819 0.0 0.0 0.0 0.0 0.0 0.0
-112847.189528082 21.5998105072285 -665.179565971177 0.0 0.0 0.0 0.0 0.0 0.0
-110215.527693569 10.0392138526258 -675.990886012966 0.0 0.0 0.0 0.0 0.0 0.0
-107551.109698729 4.22632244322813 -680.969254559943 0.0 0.0 0.0 0.0 0.0 0.0
-104871.423531557 1.56704903328864 -683.044035646025 0.0 0.0 0.0 0.0 0.0 0.0
-102185.286182022 0.463856954320363 -683.801288968188 0.0 0.0 0.0 0.0 0.0 0.0
-99496.7462045826 0.0656098377767194 -684.018221260382 0.0 0.0 0.0 0.0 0.0 0.0
-96807.4873018067 -0.0456740753543272 -684.043431890973 0.0 0.0 0.0 0.0 0.0 0.0
-94118.1202736459 -0.0561239912458404 -684.017188884445 0.0 0.0 0.0 0.0 0.0 0.0
-91428.8176406933 -0.0402343445748556 -683.987836291439 0.0 0.0 0.0 0.0 0.0 0.0
-88739.5973115519 -0.0234245624196774 -683.967367162697 0.0 0.0 0.0 0.0 0.0 0.0
-86050.4366146322 -0.0119720368275011 -683.955585805567 0.0 0.0 0.0 0.0 0.0 0.0
-83361.3117942045 -0.00596955820583389 -683.949383161998 0.0 0.0 0.0 0.0 0.0 0.0
-80672.2084851534 -0.00434116915857885 -683.945623619278 0.0 0.0 0.0 0.0 0.0 0.0
-77983.1230027535 -0.0064857549041335 -683.941581917177 0.0 0.0 0.0 0.0 0.0 0.0
-75294.0622049618 -0.0126615094523004 -683.934586990231 0.0 0.0 0.0 0.0 0.0 0.0
-72605.0445168267 -0.0239759693322412 -683.921489171632 0.0 0.0 0.0 0.0 0.0 0.0
-69916.1026843897 -0.0422612937836675 -683.898156740859 0.0 0.0 0.0 0.0 0.0 0.0
-67227.2880109628 -0.0698457925245748 -683.859096323095 0.0 0.0 0.0 0.0 0.0 0.0
-64538.6752583241 -0.109092384911492 -683.797326184006 0.0 0.0 0.0 0.0 0.0 0.0
-61850.366553503 -0.161465365865297 -683.704755216619 0.0 0.0 0.0 0.0 0.0 0.0
-59162.4911702823 -0.225763622071099 -683.57352509549 0.0 0.0 0.0 0.0 0.0 0.0
-56475.1956072146 -0.295001462020082 -683.399071906501 0.0 0.0 0.0 0.0 0.0 0.0
-53788.614581406 -0.351235814576285 -683.186074147498 0.0 0.0 0.0 0.0 0.0 0.0
-51102.8080100781 -0.357458027965549 -682.958978499656 0.0 0.0 0.0 0.0 0.0 0.0
-48417.6415097471 -0.245589129417567 -682.779390079367 0.0 0.0 0.0 0.0 0.0 0.0
-45732.5786014218 0.100174072327718 -682.773134497332 0.0 0.0 0.0 0.0 0.0 0.0
-43046.3429693347 0.864521351257281 -683.169895576964 0.0 0.0 0.0 0.0 0.0 0.0
-40356.4023544221 2.32427446233851 -684.357276934474 0.0 0.0 0.0 0.0 0.0 0.0
-37658.2298513973 4.86639412032309 -686.947550882457 0.0 0.0 0.0 0.0 0.0 0.0
-34944.3287614791 8.98410797414545 -691.846873636616 0.0 0.0 0.0 0.0 0.0 0.0
-32203.0901698318 15.218642392485 -700.299748872279 0.0 0.0 0.0 0.0 0.0 0.0
-29417.7283292237 23.9906727217831 -713.851570954314 0.0 0.0 0.0 0.0 0.0 0.0
-26565.8575633495 35.2391472523241 -734.126261880109 0.0 0.0 0.0 0.0 0.0 0.0
-23620.7718779422 47.773522182275 -762.259428905757 0.0 0.0 0.0 0.0 0.0 0.0
-20556.1263740659 58.2910054112235 -797.785918651086 0.0 0.0 0.0 0.0 0.0 0.0
-17356.26913009 60.1857911918505 -836.818530236196 0.0 0.0 0.0 0.0 0.0 0.0
-14034.3573041847 42.6627131987743 -869.587081168218 0.0 0.0 0.0 0.0 0.0 0.0
-10658.5205720772 -8.69214376953778 -877.988203498928 0.0 0.0 0.0 0.0 0.0 0.0
-7381.21568080238 -108.012934975472 -834.859448597915 0.0 0.0 0.0 0.0 0.0 0.0
-4454.56369345317 -258.263023784963 -708.555323510116 0.0 0.0 0.0 0.0 0.0 0.0
-2190.95216046969 -428.354552779837 -481.076686360292 0.0 0.0 0.0 0.0 0.0 0.0
-830.80363071018 -485.273594670962 -199.600902354499 0.0 0.0 0.0 0.0 0.0 0.0
-167.632224345759 74.6626406159608 -61.3343939230677 0.0 0.0 0.0 0.0 0.0 0.0
-125292.41760199 -53696.7504008528 -9879.73070581408 0.0 0.0 0.0 0.0 0.0 0.0
-112880.595884069 -8553.59555452726 -5145.52972504642 0.0 0.0 0.0 0.0 0.0 0.0
-115539.004990909 -218.081861557628 -2026.15293546672 0.0 0.0 0.0 0.0 0.0 0.0
-112951.307514924 -261.418358151423 -1103.80006724072 0.0 0.0 0.0 0.0 0.0 0.0
-109630.538596971 225.845420791578 -1004.41337315411 0.0 0.0 0.0 0.0 0.0 0.0
-107269.510192494 186.194720923701 -1100.10210764 0.0 0.0 0.0 0.0 0.0 0.0
-104971.714098315 126.420383275254 -1190.0625009787 0.0 0.0 0.0 0.0 0.0 0.0
-102670.633318377 71.7462009365336 -1251.66245776094 0.0 0.0 0.0 0.0 0.0 0.0
-100336.24601667 36.9929199009675 -1286.78627718692 0.0 0.0 0.0 0.0 0.0 0.0
-97976.5911012581 17.3846403852876 -1304.94268013149 0.0 0.0 0.0 0.0 0.0 0.0
-95601.3026656201 7.42731267063209 -1313.47832735773 0.0 0.0 0.0 0.0 0.0 0.0
-93217.6914574824 2.8048385449074 -1317.12999515605 0.0 0.0 0.0 0.0 0.0 0.0
-90830.0617618569 0.862352944437589 -1318.51090022 0.0 0.0 0.0 0.0 0.0 0.0
-88440.6728463513 0.146536361764447 -1318.93719943682 0.0 0.0 0.0 0.0 0.0 0.0
-86050.5964984281 -0.0624617594803567 -1319.01102023503 0.0 0.0 0.0 0.0 0.0 0.0
-83660.2943122867 -0.0894982283789432 -1318.98156652723 0.0 0.0 0.0 0.0 0.0 0.0
-81269.9424644741 -0.0664254069670278 -1318.93841828964 0.0 0.0 0.0 0.0 0.0 0.0
-78879.5964079633 -0.0393658231841982 -1318.90629907175 0.0 0.0 0.0 0.0 0.0 0.0
-76489.2669504786 -0.0204695598731632 -1318.88710445906 0.0 0.0 0.0 0.0 0.0 0.0
-74098.9522853848 -0.0106175481887476 -1318.87655391431 0.0 0.0 0.0 0.0 0.0 0.0
-71708.6502135445 -0.00835484512936091 -1318.86966196196 0.0 0.0 0.0 0.0 0.0 0.0
-69318.3625220933 -0.0129075545555679 -1318.86179151155 0.0 0.0 0.0 0.0 0.0 0.0
-66928.0969322807 -0.0249474116390047 -1318.84819647953 0.0 0.0 0.0 0.0 0.0 0.0
-64537.8688174254 -0.0466194493910734 -1318.82317987365 0.0 0.0 0.0 0.0 0.0 0.0
-62147.7033917331 -0.0813264237822295 -1318.77927287894 0.0 0.0 0.0 0.0 0.0 0.0
-59757.6382982242 -0.133286382462757 -1318.70663944672 0.0 0.0 0.0 0.0 0.0 0.0
-57367.725916401 -0.206619872024021 -1318.59297034307 0.0 0.0 0.0 0.0 0.0 0.0
-54978.0339269919 -0.3035200578488 -1318.42435322408 0.0 0.0 0.0 0.0 0.0 0.0
-52588.6414559128 -0.420827369063772 -1318.18797527375 0.0 0.0 0.0 0.0 0.0 0.0
-50199.6262418232 -0.544043270307156 -1317.87805285644 0.0 0.0 0.0 0.0 0.0 0.0
-47811.03550834 -0.63748686415056 -1317.50711348966 0.0 0.0 0.0 0.0 0.0 0.0
-45422.8294008878 -0.628989206830738 -1317.12567360588 0.0 0.0 0.0 0.0 0.0 0.0
-43034.7809724927 -0.387408403477821 -1316.85436792334 0.0 0.0 0.0 0.0 0.0 0.0
-40646.3111987049 0.308300707954913 -1316.93341131816 0.0 0.0 0.0 0.0 0.0 0.0
-38256.2326697739 1.80800289923172 -1317.79426151664 0.0 0.0 0.0 0.0 0.0 0.0
-35862.3743785041 4.6325325738253 -1320.15618116966 0.0 0.0 0.0 0.0 0.0 0.0
-33461.0681307213 9.50528829253381 -1325.14362711906 0.0 0.0 0.0 0.0 0.0 0.0
-31046.5047149838 17.342452860019 -1334.40488450466 0.0 0.0 0.0 0.0 0.0 0.0
-28610.0315200344 29.1421246003574 -1350.18189486853 0.0 0.0 0.0 0.0 0.0 0.0
-26139.5865027036 45.6699360053581 -1375.22823330665 0.0 0.0 0.0 0.0 0.0 0.0
-23619.6743542653 66.7894509213193 -1412.39180094642 0.0 0.0 0.0 0.0 0.0 0.0
-21032.6075167795 90.2613650988205 -1463.58005291673 0.0 0.0 0.0 0.0 0.0 0.0
-18362.1256898651 109.914522717016 -1527.75416698815 0.0 0.0 0.0 0.0 0.0 0.0
-15600.8079841667 113.413663011157 -1597.67008101838 0.0 0.0 0.0 0.0 0.0 0.0
-12762.4617081491 80.5891981268637 -1655.51298317011 0.0 0.0 0.0 0.0 0.0 0.0
-9899.06847267741 -15.4752367348842 -1668.64966774495 0.0 0.0 0.0 0.0 0.0 0.0
-7117.38631135076 -200.747204853917 -1588.74741350644 0.0 0.0 0.0 0.0 0.0 0.0
-4581.87225092862 -480.72386759485 -1360.85808338588 0.0 0.0 0.0 0.0 0.0 0.0
-2493.1936126559 -803.376508075561 -954.907710376028 0.0 0.0 0.0 0.0 0.0 0.0
-1112.23119169091 -970.710168287348 -437.347862224636 0.0 0.0 0.0 0.0 0.0 0.0
-202.350597408798 38.0235323167614 -152.500204377165 0.0 0.0 0.0 0.0 0.0 0.0
-105540.659380195 -45231.7111629407 -6984.34907902486 0.0 0.0 0.0 0.0 0.0 0.0
-98203.2529421956 -13364.5573703876 -4306.05332235241 0.0 0.0 0.0 0.0 0.0 0.0
-100686.258488567 -2077.26311735284 -2930.63809707627 0.0 0.0 0.0 0.0 0.0 0.0
-99569.5530480537 -41.3042263585667 -1850.51314989419 0.0 0.0 0.0 0.0 0.0 0.0
-96863.3669875982 239.031271989104 -1628.1152794375 0.0 0.0 0.0 0.0 0.0 0.0
-94333.4745061805 284.773720399542 -1665.40457986357 0.0 0.0 0.0 0.0 0.0 0.0
-92096.6246599543 190.604134404377 -1744.73127646733 0.0 0.0 0.0 0.0 0.0 0.0
-89949.3073969864 111.634243494711 -1805.43823044881 0.0 0.0 0.0 0.0 0.0 0.0
-87842.0804058019 58.0162558762931 -1842.72429163865 0.0 0.0 0.0 0.0 0.0 0.0
-85747.4909834642 27.573214429176 -1862.73245312553 0.0 0.0 0.0 0.0 0.0 0.0
-83656.6833605484 11.8907095591385 -1872.47967990452 0.0 0.0 0.0 0.0 0.0 0.0
-81566.4356922543 4.55229554380639 -1876.79412576706 0.0 0.0 0.0 0.0 0.0 0.0
-79475.9137957858 1.43583452089661 -1878.50423593028 0.0 0.0 0.0 0.0 0.0 0.0
-77385.0158402969 0.271084834610519 -1879.0787101552 0.0 0.0 0.0 0.0 0.0 0.0
-75293.8399915019 -0.0793012460198952 -1879.21276942773 0.0 0.0 0.0 0.0 0.0 0.0
-73202.4960591841 -0.132678618116188 -1879.20450595855 0.0 0.0 0.0 0.0 0.0 0.0
-71111.0621255093 -0.101365760721819 -1879.16704258132 0.0 0.0 0.0 0.0 0.0 0.0
-69019.5844575673 -0.060922866967303 -1879.13531695932 0.0 0.0 0.0 0.0 0.0 0.0
-66928.0878492978 -0.0321286225662334 -1879.1150995593 0.0 0.0 0.0 0.0 0.0 0.0
-64836.5851413429 -0.0172533249460685 -1879.10316817338 0.0 0.0 0.0 0.0 0.0 0.0
-62745.0838116324 -0.0145101223552047 -1879.09438900688 0.0 0.0 0.0 0.0 0.0 0.0
-60653.5901342518 -0.0230405922993668 -1879.08339309791 0.0 0.0 0.0 0.0 0.0 0.0
-58562.1118834265 -0.0442459073674399 -1879.06428150432 0.0 0.0 0.0 0.0 0.0 0.0
-56470.6603279826 -0.0818831953529298 -1879.0297557811 0.0 0.0 0.0 0.0 0.0 0.0
-54379.2518906974 -0.141718132252208 -1878.97022726241 0.0 0.0 0.0 0.0 0.0 0.0
-52287.9094556843 -0.230747870811683 -1878.87321862077 0.0 0.0 0.0 0.0 0.0 0.0
-50196.6628632527 -0.355577491021904 -1878.72344943116 0.0 0.0 0.0 0.0 0.0 0.0
-48105.5475459072 -0.519185404433301 -1878.50428389053 0.0 0.0 0.0 0.0 0.0 0.0
-46014.5994230213 -0.714920583141065 -1878.20169484163 0.0 0.0 0.0 0.0 0.0 0.0
-43923.8429767612 -0.916093064293818 -1877.8125853429 0.0 0.0 0.0 0.0 0.0 0.0
-41833.2677901519 -1.05897142804861 -1877.36022869222 0.0 0.0 0.0 0.0 0.0 0.0
-39742.7867165763 -1.01651013000264 -1876.92071573866 0.0 0.0 0.0 0.0 0.0 0.0
-37652.1663899416 -0.559993253906214 -1876.66549154876 0.0 0.0 0.0 0.0 0.0 0.0
-35560.9183803546 0.693376553266717 -1876.92593172238 0.0 0.0 0.0 0.0 0.0 0.0
-33468.1378353755 3.34590466034206 -1878.2855951848 0.0 0.0 0.0 0.0 0.0 0.0
-31372.27756878 8.28948208455859 -1881.70261659827 0.0 0.0 0.0 0.0 0.0 0.0
-29270.8520103708 16.7567455398539 -1888.65564352773 0.0 0.0 0.0 0.0 0.0 0.0
-27160.0814765099 30.3013360221685 -1901.2867725923 0.0 0.0 0.0 0.0 0.0 0.0
-25034.519264137 50.6072352207229 -1922.47667033207 0.0 0.0 0.0 0.0 0.0 0.0
-22886.7618751182 78.9558637521031 -1955.72142956167 0.0 0.0 0.0 0.0 0.0 0.0
-20707.441448898 115.095714207945 -2004.5815228086 0.0 0.0 0.0 0.0 0.0 0.0
-18485.8604794378 155.212859371129 -2071.35018260597 0.0 0.0 0.0 0.0 0.0 0.0
-16211.8677989722 188.821155231103 -2154.49554509285 0.0 0.0 0.0 0.0 0.0 0.0
-13879.8487063918 194.922744862384 -2244.51271672332 0.0 0.0 0.0 0.0 0.0 0.0
-11495.7854056343 139.053049684543 -2318.36285773493 0.0 0.0 0.0 0.0 0.0 0.0
-9087.61237015434 -24.966667902484 -2334.10055937526 0.0 0.0 0.0 0.0 0.0 0.0
-6716.58313690717 -341.943066124365 -2230.02861483989 0.0 0.0 0.0 0.0 0.0 0.0
-4485.20679607673 -822.372589021839 -1936.92129810079 0.0 0.0 0.0 0.0 0.0 0.0
-2552.03847397501 -1377.16831461504 -1415.25331174602 0.0 0.0 0.0 0.0 0.0 0.0
-1208.71965361693 -1670.05735040249 -718.515717986329 0.0 0.0 0.0 0.0 0.0 0.0
-166.421029321654 -364.167894560098 -293.138745916906 0.0 0.0 0.0 0.0 0.0 0.0
-88275.8053341147 -37832.4880003349 -4853.28427496724 0.0 0.0 0.0 0.0 0.0 0.0
-83597.4272086182 -14555.2218232707 -3238.20146837872 0.0 0.0 0.0 0.0 0.0 0.0
-85915.2978292684 -3718.31622668642 -3205.98311247362 0.0 0.0 0.0 0.0 0.0 0.0
-85565.2946834768 -353.513094129878 -2537.10788701411 0.0 0.0 0.0 0.0 0.0 0.0
-83563.1705757443 304.570224152878 -2248.03297551644 0.0 0.0 0.0 0.0 0.0 0.0
-81280.4344597667 345.149342137302 -2220.97309792204 0.0 0.0 0.0 0.0 0.0 0.0
-79174.0346211159 251.194188193258 -2262.08019290328 0.0 0.0 0.0 0.0 0.0 0.0
-77220.2541727684 148.486477551825 -2304.8681498985 0.0 0.0 0.0 0.0 0.0 0.0
-75348.9173332677 78.5999510935872 -2333.7418967114 0.0 0.0 0.0 0.0 0.0 0.0
-73521.3157161983 37.7148068662682 -2350.18072342553 0.0 0.0 0.0 0.0 0.0 0.0
-71714.382205948 16.4690341691421 -2358.51245445899 0.0 0.0 0.0 0.0 0.0 0.0
-69916.6366674155 6.40198624062032 -2362.34828124633 0.0 0.0 0.0 0.0 0.0 0.0
-68122.561112165 2.07902621799076 -2363.94068606425 0.0 0.0 0.0 0.0 0.0 0.0
-66329.7523335665 0.435433848540924 -2364.51737858141 0.0 0.0 0.0 0.0 0.0 0.0
-64537.2607322259 -0.0755711187102861 -2364.68022983137 0.0 0.0 0.0 0.0 0.0 0.0
-62744.7696956438 -0.166137011863611 -2364.6977731236 0.0 0.0 0.0 0.0 0.0 0.0
-60952.206816598 -0.132075829571477 -2364.67726146761 0.0 0.0 0.0 0.0 0.0 0.0
-59159.5786023793 -0.0808469193325436 -2364.65505465772 0.0 0.0 0.0 0.0 0.0 0.0
-57366.9077610621 -0.0434093351432239 -2364.63949570032 0.0 0.0 0.0 0.0 0.0 0.0
-55574.2139799213 -0.0243387636983243 -2364.62929709593 0.0 0.0 0.0 0.0 0.0 0.0
-53781.5107852435 -0.0220749366235395 -2364.62036468731 0.0 0.0 0.0 0.0 0.0 0.0
-51988.8071833607 -0.0360838772121497 -2364.60763863586 0.0 0.0 0.0 0.0 0.0 0.0
-50196.1099811051 -0.0688789161831664 -2364.58499455596 0.0 0.0 0.0 0.0 0.0 0.0
-48403.4256032506 -0.126241168309207 -2364.54451393035 0.0 0.0 0.0 0.0 0.0 0.0
-46610.7611938408 -0.216732421091365 -2364.47569911762 0.0 0.0 0.0 0.0 0.0 0.0
-44818.1249512182 -0.350497999066647 -2364.36501025894 0.0 0.0 0.0 0.0 0.0 0.0
-43025.5254918471 -0.536732188331371 -2364.1962065756 0.0 0.0 0.0 0.0 0.0 0.0
-41232.9697424026 -0.778659799545494 -2363.95229488185 0.0 0.0 0.0 0.0 0.0 0.0
-39440.4584718814 -1.06430350876508 -2363.620412864 0.0 0.0 0.0 0.0 0.0 0.0
-37647.9781054361 -1.35059963627464 -2363.20172480905 0.0 0.0 0.0 0.0 0.0 0.0
-35855.4869277052 -1.537634540422 -2362.72939714045 0.0 0.0 0.0 0.0 0.0 0.0
-34062.8932531643 -1.42909625321772 -2362.29890777317 0.0 0.0 0.0 0.0 0.0 0.0
-32270.0227492339 -0.674920121756259 -2362.11614999042 0.0 0.0 0.0 0.0 0.0 0.0
-30476.5720587285 1.30651930991917 -2362.56957262717 0.0 0.0 0.0 0.0 0.0 0.0
-28682.046419306 5.4247091825182 -2364.33202012007 0.0 0.0 0.0 0.0 0.0 0.0
-26885.6802007394 13.018895139845 -2368.49423100952 0.0 0.0 0.0 0.0 0.0 0.0
-25086.3407186235 25.930315987679 -2376.72202449549 0.0 0.0 0.0 0.0 0.0 0.0
-23282.4157938469 46.4681591630379 -2391.4080128252 0.0 0.0 0.0 0.0 0.0 0.0
-21471.6815317964 77.1230600753925 -2415.74874929826 0.0 0.0 0.0 0.0 0.0 0.0
-19651.1368033673 119.778366239309 -2453.61003866513 0.0 0.0 0.0 0.0 0.0 0.0
-17816.7821842629 174.044637648136 -2508.93849561378 0.0 0.0 0.0 0.0 0.0 0.0
-15963.3485019347 234.263951821406 -2584.34077724092 0.0 0.0 0.0 0.0 0.0 0.0
-14084.1281135289 284.880940570502 -2678.32916887606 0.0 0.0 0.0 0.0 0.0 0.0
-12171.4549056 294.624044535874 -2780.76806460107 0.0 0.0 0.0 0.0 0.0 0.0
-10219.0603095652 211.818085097873 -2866.57469410026 0.0 0.0 0.0 0.0 0.0 0.0
-8228.20365799213 -33.4274260843224 -2889.27259537373 0.0 0.0 0.0 0.0 0.0 0.0
-6219.64833446526 -509.90330903803 -2779.15291448157 0.0 0.0 0.0 0.0 0.0 0.0
-4255.23971063862 -1234.84160648224 -2455.17343190893 0.0 0.0 0.0 0.0 0.0 0.0
-2480.37212939077 -2072.89999217883 -1860.21251438218 0.0 0.0 0.0 0.0 0.0 0.0
-1207.54664947329 -2555.87304294792 -1008.97576533233 0.0 0.0 0.0 0.0 0.0 0.0
-149.511555565486 -1221.94426702403 -445.751399159674 0.0 0.0 0.0 0.0 0.0 0.0
-72341.2142542523 -31003.3775375367 -3261.70585745087 0.0 0.0 0.0 0.0 0.0 0.0
-69227.2180969015 -13807.2871523513 -2257.90438767906 0.0 0.0 0.0 0.0 0.0 0.0
-71276.7528126094 -4511.44047470677 -3178.82331612233 0.0 0.0 0.0 0.0 0.0 0.0
-71329.4257477154 -752.260881167005 -3017.58744206081 0.0 0.0 0.0 0.0 0.0 0.0
-69919.2032517289 260.453486668594 -2806.80987903129 0.0 0.0 0.0 0.0 0.0 0.0
-68029.2883082857 377.081138910318 -2733.74843393796 0.0 0.0 0.0 0.0 0.0 0.0
-66174.7509730466 283.779565917543 -2731.01939842747 0.0 0.0 0.0 0.0 0.0 0.0
-64457.6488352714 172.981337335799 -2745.26518928678 0.0 0.0 0.0 0.0 0.0 0.0
-62844.0020616942 92.6330559017078 -2758.44230054952 0.0 0.0 0.0 0.0 0.0 0.0
-61291.4881434974 45.0152467119024 -2766.93126867735 0.0 0.0 0.0 0.0 0.0 0.0
-59771.4779051912 19.8727504298113 -2771.59069152308 0.0 0.0 0.0 0.0 0.0 0.0
-58267.0925207925 7.84473162881113 -2773.87798150297 0.0 0.0 0.0 0.0 0.0 0.0
-56769.581385078 2.6159442455064 -2774.89656457135 0.0 0.0 0.0 0.0 0.0 0.0
-55274.7696134217 0.596592831696398 -2775.30285282294 0.0 0.0 0.0 0.0 0.0 0.0
-53780.8524776727 -0.0506610447610001 -2775.44135816699 0.0 0.0 0.0 0.0 0.0 0.0
-52287.1349706324 -0.179538748292543 -2775.47551482861 0.0 0.0 0.0 0.0 0.0 0.0
-50793.3957662239 -0.149377600109801 -2775.47563686971 0.0 0.0 0.0 0.0 0.0 0.0
-49299.5916555473 -0.093200940907991 -2775.46834490597 0.0 0.0 0.0 0.0 0.0 0.0
-47805.733840346 -0.0510173653219681 -2775.46152218936 0.0 0.0 0.0 0.0 0.0 0.0
-46311.8424447415 -0.0301309936185135 -2775.45565229467 0.0 0.0 0.0 0.0 0.0 0.0
-44817.933268047 -0.029885275685956 -2775.44832618913 0.0 0.0 0.0 0.0 0.0 0.0
-43324.0159879778 -0.0506270277419389 -2775.43558079066 0.0 0.0 0.0 0.0 0.0 0.0
-41830.0953873103 -0.0963724547400489 -2775.41188175988 0.0 0.0 0.0 0.0 0.0 0.0
-40336.1726256463 -0.175183907678729 -2775.36960283307 0.0 0.0 0.0 0.0 0.0 0.0
-38842.2457302296 -0.298558631599008 -2775.29844903483 0.0 0.0 0.0 0.0 0.0 0.0
-37348.3091935155 -0.479777449863832 -2775.18519646303 0.0 0.0 0.0 0.0 0.0 0.0
-35854.3527375954 -0.730354300991166 -2775.01426626055 0.0 0.0 0.0 0.0 0.0 0.0
-34360.3593390223 -1.05303713281319 -2774.76997929375 0.0 0.0 0.0 0.0 0.0 0.0
-32866.3026868358 -1.42902910338307 -2774.44185912967 0.0 0.0 0.0 0.0 0.0 0.0
-31372.1444805113 -1.79616065102618 -2774.03508712714 0.0 0.0 0.0 0.0 0.0 0.0
-29877.8324636122 -2.01371818442567 -2773.58917218657 0.0 0.0 0.0 0.0 0.0 0.0
-28383.3009411399 -1.80879009849286 -2773.20902592099 0.0 0.0 0.0 0.0 0.0 0.0
-26888.4768303493 -0.698942338770394 -2773.11374606762 0.0 0.0 0.0 0.0 0.0 0.0
-25393.29599246 2.11198736373444 -2773.70906999402 0.0 0.0 0.0 0.0 0.0 0.0
-23897.7362219307 7.86189609499525 -2775.68879049459 0.0 0.0 0.0 0.0 0.0 0.0
-22401.873392906 18.3645584643837 -2780.16683165017 0.0 0.0 0.0 0.0 0.0 0.0
-20905.9625232785 36.1028591445238 -2788.83244815551 0.0 0.0 0.0 0.0 0.0 0.0
-19410.5293371501 64.1802871022601 -2804.10178129571 0.0 0.0 0.0 0.0 0.0 0.0
-17916.4196879515 105.93979929109 -2829.20319144735 0.0 0.0 0.0 0.0 0.0 0.0
-16424.681913865 163.924164074509 -2868.07215330732 0.0 0.0 0.0 0.0 0.0 0.0
-14936.0505140866 237.683924290688 -2924.83295931652 0.0 0.0 0.0 0.0 0.0 0.0
-13449.7050303565 319.813620794085 -3002.50206918373 0.0 0.0 0.0 0.0 0.0 0.0
-11961.0508843935 389.737404220355 -3100.38155461383 0.0 0.0 0.0 0.0 0.0 0.0
-10458.8229114233 405.661226997632 -3209.52993029494 0.0 0.0 0.0 0.0 0.0 0.0
-8923.236138564 297.560564857054 -3306.02067686604 0.0 0.0 0.0 0.0 0.0 0.0
-7329.31055595783 -31.1244357639312 -3343.07860386757 0.0 0.0 0.0 0.0 0.0 0.0
-5662.36323662223 -678.522485684358 -3246.42055075712 0.0 0.0 0.0 0.0 0.0 0.0
-3954.41297634326 -1674.98369746672 -2921.7306173731 0.0 0.0 0.0 0.0 0.0 0.0
-2346.33727993889 -2848.53075040127 -2283.21434148168 0.0 0.0 0.0 0.0 0.0 0.0
-1162.02167533181 -3628.43954875514 -1292.44115090922 0.0 0.0 0.0 0.0 0.0 0.0
-181.153375922684 -2536.13779959771 -595.350455979394 0.0 0.0 0.0 0.0 0.0 0.0
-57197.4475148637 -24513.1917920844 -2077.51816936111 0.0 0.0 0.0 0.0 0.0 0.0
-55092.2141788704 -11941.2128443016 -1446.83571838126 0.0 0.0 0.0 0.0 0.0 0.0
-56793.9879180934 -4507.14403944304 -3026.94426501275 0.0 0.0 0.0 0.0 0.0 0.0
-57026.8383691413 -993.136095202086 -3323.04022732718 0.0 0.0 0.0 0.0 0.0 0.0
-56072.2684862124 159.599640369748 -3257.85321947181 0.0 0.0 0.0 0.0 0.0 0.0
-54604.7999727584 357.261431130595 -3177.72239721931 0.0 0.0 0.0 0.0 0.0 0.0
-53079.1386857539 284.154476610893 -3136.65274869481 0.0 0.0 0.0 0.0 0.0 0.0
-51649.1122094688 176.952895833025 -3119.87664801201 0.0 0.0 0.0 0.0 0.0 0.0
-50318.1217559437 96.1912564302129 -3113.72142667521 0.0 0.0 0.0 0.0 0.0 0.0
-49053.207519595 47.1907328153593 -3111.74319973919 0.0 0.0 0.0 0.0 0.0 0.0
-47825.55547893 21.0530193206796 -3111.26395968147 0.0 0.0 0.0 0.0 0.0 0.0
-46616.7357734796 8.4161583170262 -3111.25930849486 0.0 0.0 0.0 0.0 0.0 0.0
-45416.5443985144 2.86926292715543 -3111.36016382256 0.0 0.0 0.0 0.0 0.0 0.0
-44219.9205853863 0.697277787539861 -3111.45304162019 0.0 0.0 0.0 0.0 0.0 0.0
-43024.5786799838 -0.0160682597033883 -3111.51507409686 0.0 0.0 0.0 0.0 0.0 0.0
-41829.5920464959 -0.170441235964972 -3111.55092863914 0.0 0.0 0.0 0.0 0.0 0.0
-40634.6372818085 -0.14846471752935 -3111.5699174995 0.0 0.0 0.0 0.0 0.0 0.0
-39439.6310331197 -0.0941955893740669 -3111.57931468163 0.0 0.0 0.0 0.0 0.0 0.0
-38244.5709244922 -0.0525550480178936 -3111.58329082596 0.0 0.0 0.0 0.0 0.0 0.0
-37049.4734491114 -0.0331284224830597 -3111.58339220226 0.0 0.0 0.0 0.0 0.0 0.0
-35854.3534438387 -0.0366784434336296 -3111.57909012927 0.0 0.0 0.0 0.0 0.0 0.0
-34659.2192876849 -0.0649765014359218 -3111.56801206903 0.0 0.0 0.0 0.0 0.0 0.0
-33464.0728222125 -0.123871357618555 -3111.54584328809 0.0 0.0 0.0 0.0 0.0 0.0
-32268.9098581889 -0.223806750611402 -3111.50601800856 0.0 0.0 0.0 0.0 0.0 0.0
-31073.7200116023 -0.379117010862501 -3111.43939125242 0.0 0.0 0.0 0.0 0.0 0.0
-29878.4857257031 -0.605943142712931 -3111.33419013629 0.0 0.0 0.0 0.0 0.0 0.0
-28683.1807960762 -0.917674157839429 -3111.17673560329 0.0 0.0 0.0 0.0 0.0 0.0
-27487.7690650034 -1.31597748627792 -3110.95374029709 0.0 0.0 0.0 0.0 0.0 0.0
-26292.2044692407 -1.77451790413579 -3110.65746027043 0.0 0.0 0.0 0.0 0.0 0.0
-25096.4344938659 -2.21131448097185 -3110.29563552355 0.0 0.0 0.0 0.0 0.0 0.0
-23900.4104577878 -2.44444996430411 -3109.90900117058 0.0 0.0 0.0 0.0 0.0 0.0
-22704.1100562565 -2.12486847525452 -3109.60013439121 0.0 0.0 0.0 0.0 0.0 0.0
-21507.5802214522 -0.640038205489873 -3109.57835602893 0.0 0.0 0.0 0.0 0.0 0.0
-20311.0113190765 3.01518669487177 -3110.22596215071 0.0 0.0 0.0 0.0 0.0 0.0
-19114.8559011813 10.3963627200692 -3112.19052088756 0.0 0.0 0.0 0.0 0.0 0.0
-17920.0040258919 23.7740272393958 -3116.50512123106 0.0 0.0 0.0 0.0 0.0 0.0
-16728.0169560134 46.2479111001935 -3124.73132510901 0.0 0.0 0.0 0.0 0.0 0.0
-15541.3914975879 81.689754885133 -3139.10502630036 0.0 0.0 0.0 0.0 0.0 0.0
-14363.7616500889 134.286959950449 -3162.63850939042 0.0 0.0 0.0 0.0 0.0 0.0
-13199.8214712654 207.297685267543 -3199.08457100767 0.0 0.0 0.0 0.0 0.0 0.0
-12054.5618459254 300.418211691496 -3252.58666174896 0.0 0.0 0.0 0.0 0.0 0.0
-10931.1990734634 404.975129194509 -3326.70039242307 0.0 0.0 0.0 0.0 0.0 0.0
-9827.13768377006 496.221587331476 -3422.25427795448 0.0 0.0 0.0 0.0 0.0 0.0
-8727.95228159543 522.915938052926 -3533.25358799617 0.0 0.0 0.0 0.0 0.0 0.0
-7601.49749732185 397.192286407858 -3639.96748512708 0.0 0.0 0.0 0.0 0.0 0.0
-6398.50269301886 -6.09090849440963 -3699.19790130568 0.0 0.0 0.0 0.0 0.0 0.0
-5071.39806925484 -821.365551343827 -3634.71565833713 0.0 0.0 0.0 0.0 0.0 0.0
-3624.21704384881 -2106.71410257307 -3336.304260948 0.0 0.0 0.0 0.0 0.0 0.0
-2191.51407741771 -3677.32124564163 -2679.20625512367 0.0 0.0 0.0 0.0 0.0 0.0
-1104.22809559839 -4889.46106004236 -1562.80706038501 0.0 0.0 0.0 0.0 0.0 0.0
-269.699274961147 -4281.37682324786 -737.698885561018 0.0 0.0 0.0 0.0 0.0 0.0
-42549.0992008794 -18235.3282289483 -1219.50204178836 0.0 0.0 0.0 0.0 0.0 0.0
-41151.6829157943 -9403.79122959573 -821.677199484313 0.0 0.0 0.0 0.0 0.0 0.0
-42456.5943588624 -3882.0712541389 -2847.42146081375 0.0 0.0 0.0 0.0 0.0 0.0
-42728.9527020825 -1003.91893988673 -3504.59894995576 0.0 0.0 0.0 0.0 0.0 0.0
-42113.2542808699 64.7640321947383 -3593.58367323817 0.0 0.0 0.0 0.0 0.0 0.0
-41051.2898436853 294.249354281978 -3532.72215468622 0.0 0.0 0.0 0.0 0.0 0.0
-39893.3039747172 249.337547617684 -3465.69243991107 0.0 0.0 0.0 0.0 0.0 0.0
-38790.6971720441 158.506522551957 -3420.98438539092 0.0 0.0 0.0 0.0 0.0 0.0
-37767.6684457852 87.1534861610908 -3395.71843815333 0.0 0.0 0.0 0.0 0.0 0.0
-36803.8614318357 43.1315010066246 -3382.81215422698 0.0 0.0 0.0 0.0 0.0 0.0
-35875.1943264159 19.3947025237212 -3376.77825547412 0.0 0.0 0.0 0.0 0.0 0.0
-34964.8479818872 7.83307365456676 -3374.21285297416 0.0 0.0 0.0 0.0 0.0 0.0
-34063.1265350889 2.71550459330047 -3373.24955876249 0.0 0.0 0.0 0.0 0.0 0.0
-33165.0724555098 0.690786984070655 -3372.95674920961 0.0 0.0 0.0 0.0 0.0 0.0
-32268.3923151777 0.0134266397835745 -3372.90991604842 0.0 0.0 0.0 0.0 0.0 0.0
-31372.1281357245 -0.141639869234496 -3372.93435194434 0.0 0.0 0.0 0.0 0.0 0.0
-30475.9303483177 -0.128564748260942 -3372.96761956402 0.0 0.0 0.0 0.0 0.0 0.0
-29579.6986615506 -0.0824839594388322 -3372.99251753805 0.0 0.0 0.0 0.0 0.0 0.0
-28683.4210504152 -0.046894630967472 -3373.00732390266 0.0 0.0 0.0 0.0 0.0 0.0
-27787.1086861602 -0.0323869124149496 -3373.01388351159 0.0 0.0 0.0 0.0 0.0 0.0
-26890.773093306 -0.0413705699402271 -3373.01343985368 0.0 0.0 0.0 0.0 0.0 0.0
-25994.4197563381 -0.0774542274339183 -3373.00542168895 0.0 0.0 0.0 0.0 0.0 0.0
-25098.0469460566 -0.14852454873926 -3372.98714219076 0.0 0.0 0.0 0.0 0.0 0.0
-24201.645398713 -0.267343378386613 -3372.95367429747 0.0 0.0 0.0 0.0 0.0 0.0
-23305.1974799052 -0.450790229995619 -3372.89776679263 0.0 0.0 0.0 0.0 0.0 0.0
-22408.6757307498 -0.717420522913926 -3372.80997373325 0.0 0.0 0.0 0.0 0.0 0.0
-21512.0413463602 -1.08201853536866 -3372.67940524167 0.0 0.0 0.0 0.0 0.0 0.0
-20615.2437466304 -1.54487172844892 -3372.49578607959 0.0 0.0 0.0 0.0 0.0 0.0
-19718.2232894933 -2.07237770741085 -3372.25389380407 0.0 0.0 0.0 0.0 0.0 0.0
-18820.9205717015 -2.56427011369487 -3371.96197518009 0.0 0.0 0.0 0.0 0.0 0.0
-17923.2978450497 -2.80134216687975 -3371.65641294279 0.0 0.0 0.0 0.0 0.0 0.0
-17025.3809708584 -2.36646700218762 -3371.42569280012 0.0 0.0 0.0 0.0 0.0 0.0
-16127.3339803734 -0.531835104108268 -3371.44748007285 0.0 0.0 0.0 0.0 0.0 0.0
-15229.5821954983 3.89165109435862 -3372.04310559314 0.0 0.0 0.0 0.0 0.0 0.0
-14333.0024998962 12.7379456929102 -3373.75354321114 0.0 0.0 0.0 0.0 0.0 0.0
-13439.197325601 28.6775250031028 -3377.43934974309 0.0 0.0 0.0 0.0 0.0 0.0
-12550.8553481847 55.3531022479228 -3384.40301644418 0.0 0.0 0.0 0.0 0.0 0.0
-11672.164186279 97.3249062123114 -3396.52420983831 0.0 0.0 0.0 0.0 0.0 0.0
-10809.1579135331 159.573558217035 -3416.38372292883 0.0 0.0 0.0 0.0 0.0 0.0
-9969.72600221479 246.128278740073 -3447.3245096191 0.0 0.0 0.0 0.0 0.0 0.0
-9162.75373540892 357.142498744136 -3493.34260630554 0.0 0.0 0.0 0.0 0.0 0.0
-8395.52836360244 483.476121417624 -3558.58016248767 0.0 0.0 0.0 0.0 0.0 0.0
-7668.3306658268 597.762618646525 -3645.93438144114 0.0 0.0 0.0 0.0 0.0 0.0
-6965.66757824834 641.626211908211 -3753.81465766111 0.0 0.0 0.0 0.0 0.0 0.0
-6246.15492682936 511.531338943361 -3869.45255532157 0.0 0.0 0.0 0.0 0.0 0.0
-5439.03393614489 52.9861229182593 -3957.08710600381 0.0 0.0 0.0 0.0 0.0 0.0
-4463.73309172277 -913.685819050816 -3941.62773666796 0.0 0.0 0.0 0.0 0.0 0.0
-3291.13584528522 -2497.23187452232 -3695.36197381303 0.0 0.0 0.0 0.0 0.0 0.0
-2041.73685741498 -4535.34732407151 -3045.57603617218 0.0 0.0 0.0 0.0 0.0 0.0
-1054.04775690485 -6335.9546195609 -1820.12049429436 0.0 0.0 0.0 0.0 0.0 0.0
-418.076268029306 -6432.36713480407 -873.796449223662 0.0 0.0 0.0 0.0 0.0 0.0
-28213.2954825901 -12091.4123496815 -636.805415855795 0.0 0.0 0.0 0.0 0.0 0.0
-27355.7359750025 -6460.2300099002 -380.995054250508 0.0 0.0 0.0 0.0 0.0 0.0
-28236.5953204453 -2817.67994442521 -2692.7552010072 0.0 0.0 0.0 0.0 0.0 0.0
-28460.4160662885 -800.812652908365 -3605.14956658402 0.0 0.0 0.0 0.0 0.0 0.0
-28096.7265824935 7.74062448402674 -3821.84080613317 0.0 0.0 0.0 0.0 0.0 0.0
-27410.7052546556 205.451496845126 -3788.90233794837 0.0 0.0 0.0 0.0 0.0 0.0
-26635.8665258326 184.021809455686 -3707.4725033404 0.0 0.0 0.0 0.0 0.0 0.0
-25887.8490606716 119.153873260785 -3641.59279808575 0.0 0.0 0.0 0.0 0.0 0.0
-25193.7746116902 66.0747175627921 -3600.51352640275 0.0 0.0 0.0 0.0 0.0 0.0
-24543.4301671543 32.9051939422507 -3578.20028366077 0.0 0.0 0.0 0.0 0.0 0.0
-23920.1106696586 14.8846821076486 -3567.26093190767 0.0 0.0 0.0 0.0 0.0 0.0
-23311.1955217674 6.05499445966416 -3562.38796066551 0.0 0.0 0.0 0.0 0.0 0.0
-22709.1765148183 2.1244843539298 -3560.44376263125 0.0 0.0 0.0 0.0 0.0 0.0
-22110.1416549796 0.557811369418232 -3559.78379475595 0.0 0.0 0.0 0.0 0.0 0.0
-21512.2513532873 0.0273052007341903 -3559.6259228036 0.0 0.0 0.0 0.0 0.0 0.0
-20914.7239776058 -0.098406539552343 -3559.63272828943 0.0 0.0 0.0 0.0 0.0 0.0
-20317.2669204471 -0.0920827062464014 -3559.6750943512 0.0 0.0 0.0 0.0 0.0 0.0
-19719.7915887228 -0.0590389169610717 -3559.71220773067 0.0 0.0 0.0 0.0 0.0 0.0
-19122.2834472952 -0.0342821877302413 -3559.73610369828 0.0 0.0 0.0 0.0 0.0 0.0
-18524.7484190255 -0.0276850102509343 -3559.74845902787 0.0 0.0 0.0 0.0 0.0 0.0
-17927.1932987257 -0.0432512176344062 -3559.75201724776 0.0 0.0 0.0 0.0 0.0 0.0
-17329.61961822 -0.0866417922516121 -3559.74797542476 0.0 0.0 0.0 0.0 0.0 0.0
-16732.0218394042 -0.167815565451292 -3559.73545688302 0.0 0.0 0.0 0.0 0.0 0.0
-16134.3862672563 -0.301620785538489 -3559.71154142268 0.0 0.0 0.0 0.0 0.0 0.0
-15536.689558443 -0.507030346960164 -3559.67139430015 0.0 0.0 0.0 0.0 0.0 0.0
-14938.8968467831 -0.804461378227643 -3559.60851691881 0.0 0.0 0.0 0.0 0.0 0.0
-14340.9602257938 -1.20965717290164 -3559.51540161475 0.0 0.0 0.0 0.0 0.0 0.0
-13742.8191176591 -1.72159816822386 -3559.3850931016 0.0 0.0 0.0 0.0 0.0 0.0
-13144.4052268613 -2.3006871325797 -3559.21442877957 0.0 0.0 0.0 0.0 0.0 0.0
-12545.6565604437 -2.83199765997051 -3559.01008894264 0.0 0.0 0.0 0.0 0.0 0.0
-11946.5475949892 -3.06684548413841 -3558.79904483483 0.0 0.0 0.0 0.0 0.0 0.0
-11347.1462003269 -2.53478420018655 -3558.64552406397 0.0 0.0 0.0 0.0 0.0 0.0
-10747.7122951393 -0.418295552789459 -3558.67715624198 0.0 0.0 0.0 0.0 0.0 0.0
-10148.857804943 4.61427174632968 -3559.12340982865 0.0 0.0 0.0 0.0 0.0 0.0
-9551.79066701256 14.612416776775 -3560.36964949985 0.0 0.0 0.0 0.0 0.0 0.0
-8958.66374608205 32.5577167611302 -3563.03002892296 0.0 0.0 0.0 0.0 0.0 0.0
-8373.03541279697 62.5216823771793 -3568.04201622484 0.0 0.0 0.0 0.0 0.0 0.0
-7800.40912283212 109.627698810318 -3576.78482241936 0.0 0.0 0.0 0.0 0.0 0.0
-7248.73245255239 179.556442347756 -3591.22321274677 0.0 0.0 0.0 0.0 0.0 0.0
-6728.56747614069 277.145444763382 -3614.07413138889 0.0 0.0 0.0 0.0 0.0 0.0
-6252.34992452706 403.363042267632 -3648.9724188187 0.0 0.0 0.0 0.0 0.0 0.0
-5831.70913315493 549.599564136606 -3700.52823947015 0.0 0.0 0.0 0.0 0.0 0.0
-5471.34780738561 687.932102565063 -3773.90427279654 0.0 0.0 0.0 0.0 0.0 0.0
-5158.11268227919 756.250953321525 -3872.86653845159 0.0 0.0 0.0 0.0 0.0 0.0
-4846.31290460977 639.336017057643 -3993.96340229783 0.0 0.0 0.0 0.0 0.0 0.0
-4447.66080582311 154.424592775082 -4112.99916284344 0.0 0.0 0.0 0.0 0.0 0.0
-3846.78889124049 -933.099525676944 -4160.72904146159 0.0 0.0 0.0 0.0 0.0 0.0
-2970.77096437548 -2812.89993061922 -3993.07546498973 0.0 0.0 0.0 0.0 0.0 0.0
-1913.43674741534 -5393.45190531948 -3381.55756584127 0.0 0.0 0.0 0.0 0.0 0.0
-1024.9339904671 -7959.77730565215 -2068.38662993237 0.0 0.0 0.0 0.0 0.0 0.0
-631.075770610296 -8976.72121895586 -1007.68292662077 0.0 0.0 0.0 0.0 0.0 0.0
-14063.1868746326 -6027.08008912827 -298.36209539571 0.0 0.0 0.0 0.0 0.0 0.0
-13654.5102972099 -3283.49209719495 -119.474228061981 0.0 0.0 0.0 0.0 0.0 0.0
-14097.6968633395 -1475.76570744804 -2590.94377838341 0.0 0.0 0.0 0.0 0.0 0.0
-14221.49003947 -441.150713111046 -3654.25348557269 0.0 0.0 0.0 0.0 0.0 0.0
-14053.4279984601 -8.54627558378706 -3953.42208750887 0.0 0.0 0.0 0.0 0.0 0.0
-13717.5939123887 104.745501754549 -3942.91664354608 0.0 0.0 0.0 0.0 0.0 0.0
-13330.0257855466 97.3798113706359 -3855.01299871459 0.0 0.0 0.0 0.0 0.0 0.0
-12952.450924345 63.8551608814462 -3776.22861227272 0.0 0.0 0.0 0.0 0.0 0.0
-12601.7837247935 35.604485050691 -3724.8350178669 0.0 0.0 0.0 0.0 0.0 0.0
-12274.1563333583 17.7967270400861 -3696.20581829567 0.0 0.0 0.0 0.0 0.0 0.0
-11961.1443377586 8.08007300916142 -3681.91933105472 0.0 0.0 0.0 0.0 0.0 0.0
-11656.0309749938 3.30191449286622 -3675.45148469189 0.0 0.0 0.0 0.0 0.0 0.0
-11354.7350999907 1.16781613698504 -3672.82039847283 0.0 0.0 0.0 0.0 0.0 0.0
-11055.1072586348 0.313957912130718 -3671.89853617869 0.0 0.0 0.0 0.0 0.0 0.0
-10756.1275733164 0.0232900352048091 -3671.65853172978 0.0 0.0 0.0 0.0 0.0 0.0
-10457.358555253 -0.0463456939926346 -3671.65003715556 0.0 0.0 0.0 0.0 0.0 0.0
-10158.634269417 -0.0436171334706614 -3671.69704250689 0.0 0.0 0.0 0.0 0.0 0.0
-9859.90301346478 -0.026743606645141 -3671.7417980628 0.0 0.0 0.0 0.0 0.0 0.0
-9561.15491053921 -0.0162135152736482 -3671.77169397256 0.0 0.0 0.0 0.0 0.0 0.0
-9262.3915306759 -0.0195395688731423 -3671.78820610817 0.0 0.0 0.0 0.0 0.0 0.0
-8963.61431622893 -0.0420832706795409 -3671.79523673285 0.0 0.0 0.0 0.0 0.0 0.0
-8664.82038727787 -0.091553957820679 -3671.79552327841 0.0 0.0 0.0 0.0 0.0 0.0
-8366.00060469164 -0.179820879439831 -3671.78997258315 0.0 0.0 0.0 0.0 0.0 0.0
-8067.13784714111 -0.323419587849912 -3671.77783011419 0.0 0.0 0.0 0.0 0.0 0.0
-7768.20491693976 -0.542831589288596 -3671.75697842014 0.0 0.0 0.0 0.0 0.0 0.0
-7469.16227782586 -0.859714043219356 -3671.72424585338 0.0 0.0 0.0 0.0 0.0 0.0
-7169.95649104118 -1.2904002635978 -3671.67585788331 0.0 0.0 0.0 0.0 0.0 0.0
-6870.52109114366 -1.83297600861442 -3671.60830462977 0.0 0.0 0.0 0.0 0.0 0.0
-6570.78297928847 -2.44395884722121 -3671.52003164181 0.0 0.0 0.0 0.0 0.0 0.0
-6270.67943062016 -2.99907551425656 -3671.41452824073 0.0 0.0 0.0 0.0 0.0 0.0
-5970.19371548178 -3.23102878216343 -3671.30560172363 0.0 0.0 0.0 0.0 0.0 0.0
-5669.42123946229 -2.6359342013177 -3671.22588588277 0.0 0.0 0.0 0.0 0.0 0.0
-5368.68292245227 -0.34026690141809 -3671.23994166683 0.0 0.0 0.0 0.0 0.0 0.0
-5068.70767416798 5.07652826959156 -3671.46370923557 0.0 0.0 0.0 0.0 0.0 0.0
-4770.90973342058 15.7990504635085 -3672.09273149521 0.0 0.0 0.0 0.0 0.0 0.0
-4477.78597474573 35.0070484183743 -3673.44294786391 0.0 0.0 0.0 0.0 0.0 0.0
-4193.44656219832 67.0552142045383 -3676.01097266035 0.0 0.0 0.0 0.0 0.0 0.0
-3924.25768513745 117.465824640508 -3680.5674814962 0.0 0.0 0.0 0.0 0.0 0.0
-3679.49662735109 192.481203130229 -3688.31014792845 0.0 0.0 0.0 0.0 0.0 0.0
-3471.76139478419 297.737452266171 -3701.12250658974 0.0 0.0 0.0 0.0 0.0 0.0
-3316.58130671626 435.341299442818 -3722.0032749008 0.0 0.0 0.0 0.0 0.0 0.0
-3230.15876355351 598.235909416919 -3755.70356344336 0.0 0.0 0.0 0.0 0.0 0.0
-3223.40322302317 760.237228557308 -3809.39581484142 0.0 0.0 0.0 0.0 0.0 0.0
-3289.81168942106 859.711156647709 -3892.43881328105 0.0 0.0 0.0 0.0 0.0 0.0
-3386.18233149506 775.700795614062 -4012.37701901201 0.0 0.0 0.0 0.0 0.0 0.0
-3412.85929701433 301.40527424769 -4160.99583167876 0.0 0.0 0.0 0.0 0.0 0.0
-3218.071694034 -860.462748114806 -4282.11208187691 0.0 0.0 0.0 0.0 0.0 0.0
-2670.00584520014 -3016.16244203955 -4220.8881508045 0.0 0.0 0.0 0.0 0.0 0.0
-1817.09447857473 -6211.05199673417 -3687.00940142466 0.0 0.0 0.0 0.0 0.0 0.0
-1027.36003211178 -9747.52599541856 -2314.54300849079 0.0 0.0 0.0 0.0 0.0 0.0
-919.85346421152 -11923.777509917 -1145.88172495408 0.0 0.0 0.0 0.0 0.0 0.0
4.39834617579144E-05 1.88500550391062E-05 -187.328260574166 0.0 0.0 0.0 0.0 0.0 0.0
4.12343273410443E-05 -1.51067800402416E-05 -32.8235631408539 0.0 0.0 0.0 0.0 0.0 0.0
5.79177862505276E-05 -2.92984523184714E-05 -2555.64452533033 0.0 0.0 0.0 0.0 0.0 0.0
7.72591554891733E-05 -3.42716934937926E-05 -3668.80074243522 0.0 0.0 0.0 0.0 0.0 0.0
9.89390695167458E-05 -2.54245127280228E-05 -3996.32574988473 0.0 0.0 0.0 0.0 0.0 0.0
0.000118475069086799 7.80830032454105E-06 -3994.23413625803 0.0 0.0 0.0 0.0 0.0 0.0
0.000125542412320101 8.32972708622037E-05 -3904.57771413548 0.0 0.0 0.0 0.0 0.0 0.0
0.000100639380377743 0.000228559270794904 -3821.48893569048 0.0 0.0 0.0 0.0 0.0 0.0
1.00474090913849E-05 0.000483354091215915 -3766.52582206945 0.0 0.0 0.0 0.0 0.0 0.0
-0.000200960211941492 0.00090154421400257 -3735.6765453449 0.0 0.0 0.0 0.0 0.0 0.0
-0.000616452707504322 0.0015505257855466 -3720.20400521991 0.0 0.0 0.0 0.0 0.0 0.0
-0.00135882271308674 0.00250522156113675 -3713.16751841193 0.0 0.0 0.0 0.0 0.0 0.0
-0.00259609395601501 0.00383169993142474 -3710.2899276291 0.0 0.0 0.0 0.0 0.0 0.0
-0.00454286696873396 0.00555244810959721 -3709.27320421452 0.0 0.0 0.0 0.0 0.0 0.0
-0.00744622656668525 0.00758152489663644 -3709.0028444013 0.0 0.0 0.0 0.0 0.0 0.0
-0.0115418345412195 0.00961297252331406 -3708.98817067438 0.0 0.0 0.0 0.0 0.0 0.0
-0.0169567171467975 0.0109400919679956 -3709.03633573984 0.0 0.0 0.0 0.0 0.0 0.0
-0.0235228821784403 0.0101787665156508 -3709.08350300539 0.0 0.0 0.0 0.0 0.0 0.0
-0.0304505080471813 0.00486577086064699 -3709.11546268708 0.0 0.0 0.0 0.0 0.0 0.0
-0.0357912982839252 -0.00909071847559062 -3709.13381109884 0.0 0.0 0.0 0.0 0.0 0.0
-0.0356052975217267 -0.0381095940674641 -3709.14323529663 0.0 0.0 0.0 0.0 0.0 0.0
-0.0227348680693353 -0.0917350878805792 -3709.1476382391 0.0 0.0 0.0 0.0 0.0 0.0
0.0148992811770938 -0.183386041177641 -3709.14950651531 0.0 0.0 0.0 0.0 0.0 0.0
0.096509078450481 -0.330730624962257 -3709.150216941 0.0 0.0 0.0 0.0 0.0 0.0
0.25104724723198 -0.555065702621164 -3709.15045867021 0.0 0.0 0.0 0.0 0.0 0.0
0.519820146569344 -0.878617441275651 -3709.1505440542 0.0 0.0 0.0 0.0 0.0 0.0
0.958198666181374 -1.31798930577037 -3709.15058507918 0.0 0.0 0.0 0.0 0.0 0.0
1.63465044626869 -1.87101269938262 -3709.15055718692 0.0 0.0 0.0 0.0 0.0 0.0
2.62393131829512 -2.49297255418963 -3709.15025881106 0.0 0.0 0.0 0.0 0.0 0.0
3.98918172898837 -3.05663063753866 -3709.14914077402 0.0 0.0 0.0 0.0 0.0 0.0
5.74468369516768 -3.28884095291386 -3709.1459399388 0.0 0.0 0.0 0.0 0.0 0.0
7.78701407404003 -2.67531210370686 -3709.13802790465 0.0 0.0 0.0 0.0 0.0 0.0
9.77733481960823 -0.325161331412687 -3709.12044303607 0.0 0.0 0.0 0.0 0.0 0.0
10.9520524677854 5.20998013254433 -3709.08489150871 0.0 0.0 0.0 0.0 0.0 0.0
9.83429537510065 16.1585494193372 -3709.02000868775 0.0 0.0 0.0 0.0 0.0 0.0
3.81721769314873 35.7701272554051 -3708.91679461993 0.0 0.0 0.0 0.0 0.0 0.0
-11.4029464875348 68.5150429935924 -3708.78920617566 0.0 0.0 0.0 0.0 0.0 0.0
-42.5417195871117 120.118274183575 -3708.73264992471 0.0 0.0 0.0 0.0 0.0 0.0
-99.5279185349734 197.196893310626 -3709.06749967525 0.0 0.0 0.0 0.0 0.0 0.0
-196.205138400347 306.099671421568 -3710.65614369404 0.0 0.0 0.0 0.0 0.0 0.0
-350.490730116257 450.27740771436 -3715.5395373642 0.0 0.0 0.0 0.0 0.0 0.0
-583.03614226678 625.086762882376 -3728.08245213328 0.0 0.0 0.0 0.0 0.0 0.0
-912.43134488067 808.255151713379 -3756.71740169523 0.0 0.0 0.0 0.0 0.0 0.0
-1343.42462408574 943.160030832962 -3815.71944355195 0.0 0.0 0.0 0.0 0.0 0.0
-1843.9567878796 910.915143085502 -3924.18774421679 0.0 0.0 0.0 0.0 0.0 0.0
-2312.91082491012 489.641436599052 -4094.1259330857 0.0 0.0 0.0 0.0 0.0 0.0
-2563.59128014424 -682.086001519112 -4292.54221527866 0.0 0.0 0.0 0.0 0.0 0.0
-2387.09914943089 -3064.20818884665 -4366.10608127743 0.0 0.0 0.0 0.0 0.0 0.0
-1758.48343945753 -6929.85012147622 -3960.64432891943 0.0 0.0 0.0 0.0 0.0 0.0
-1070.47805650654 -11678.2625106771 -2568.11088659219 0.0 0.0 0.0 0.0 0.0 0.0
-1306.59788335242 -15314.6345640149 -1297.86211396724 0.0 0.0 0.0 0.0 0.0 0.0
14063.1869585671 6027.08012510017 -298.362101131971 0.0 0.0 0.0 0.0 0.0 0.0
13654.5103759211 3283.49206758306 -119.474235061872 0.0 0.0 0.0 0.0 0.0 0.0
14097.6969744224 1475.76565008341 -2590.94378694375 0.0 0.0 0.0 0.0 0.0 0.0
14221.4901882615 441.150645752579 -3654.25349633472 0.0 0.0 0.0 0.0 0.0 0.0
14053.4281898204 8.54622518640645 -3953.42209956509 0.0 0.0 0.0 0.0 0.0 0.0
13717.594142784 -104.745487526714 -3942.91665399544 0.0 0.0 0.0 0.0 0.0 0.0
13330.0260319289 -97.3796499012108 -3855.01300142275 0.0 0.0 0.0 0.0 0.0 0.0
12952.451126602 -63.8547157005585 -3776.22859584107 0.0 0.0 0.0 0.0 0.0 0.0
12601.7837584715 -35.6035418005379 -3724.83496273398 0.0 0.0 0.0 0.0 0.0 0.0
12274.1559692399 -17.7949657639556 -3696.20569290725 0.0 0.0 0.0 0.0 0.0 0.0
11961.1431852311 -8.07704148240509 -3681.91908722001 0.0 0.0 0.0 0.0 0.0 0.0
11656.0284078034 -3.29701317401418 -3675.45105267844 0.0 0.0 0.0 0.0 0.0 0.0
11354.730167299 -1.16031506875402 -3672.81968321509 0.0 0.0 0.0 0.0 0.0 0.0
11055.0985932334 -0.303081363748106 -3671.897417383 0.0 0.0 0.0 0.0 0.0 0.0
10756.1133253435 -0.00842779204253929 -3671.65687292728 0.0 0.0 0.0 0.0 0.0 0.0
10457.336407921 0.0652087796311207 -3671.6477122424 0.0 0.0 0.0 0.0 0.0 0.0
10158.6016384067 0.0651181146076851 -3671.69399335035 0.0 0.0 0.0 0.0 0.0 0.0
9859.85760036907 0.0468167135932163 -3671.73814363455 0.0 0.0 0.0 0.0 0.0 0.0
9561.09587966344 0.0259786783753952 -3671.76792022444 0.0 0.0 0.0 0.0 0.0 0.0
9262.32171255453 0.00211368164445958 -3671.785475747 0.0 0.0 0.0 0.0 0.0 0.0
8963.54400981483 -0.0319789813111129 -3671.79586735292 0.0 0.0 0.0 0.0 0.0 0.0
8664.77352120408 -0.0872802235053314 -3671.80368679274 0.0 0.0 0.0 0.0 0.0 0.0
8366.02418790764 -0.178216332769807 -3671.81266075371 0.0 0.0 0.0 0.0 0.0 0.0
8067.31570505909 -0.322903522270053 -3671.82609655097 0.0 0.0 0.0 0.0 0.0 0.0
7768.67651411637 -0.542679972460746 -3671.84738436702 0.0 0.0 0.0 0.0 0.0 0.0
7470.14669711032 -0.859630961651305 -3671.88027089705 0.0 0.0 0.0 0.0 0.0 0.0
7171.779929228 -1.29031635261038 -3671.9287368139 0.0 0.0 0.0 0.0 0.0 0.0
6873.64285911125 -1.83302240814373 -3671.9962481345 0.0 0.0 0.0 0.0 0.0 0.0
6575.80896720373 -2.44462331117518 -3672.08399109533 0.0 0.0 0.0 0.0 0.0 0.0
6278.34195238751 -3.0016247846238 -3672.18746815958 0.0 0.0 0.0 0.0 0.0 0.0
5981.26083629677 -3.23836392396834 -3672.29054340973 0.0 0.0 0.0 0.0 0.0 0.0
5684.47510687324 -2.65409479952439 -3672.35571789072 0.0 0.0 0.0 0.0 0.0 0.0
5387.67333162459 -0.38066370753711 -3672.3092047713 0.0 0.0 0.0 0.0 0.0 0.0
5090.14302372283 4.99480015815539 -3672.01954424418 0.0 0.0 0.0 0.0 0.0 0.0
4790.49391560588 15.6497728038839 -3671.26967082881 0.0 0.0 0.0 0.0 0.0 0.0
4486.25280816484 34.7692868784362 -3669.72577635163 0.0 0.0 0.0 0.0 0.0 0.0
4173.29880009869 66.7604567266256 -3666.91437744763 0.0 0.0 0.0 0.0 0.0 0.0
3845.11845015254 117.332032398597 -3662.23587440399 0.0 0.0 0.0 0.0 0.0 0.0
3491.89175525171 193.241854552773 -3655.07533903569 0.0 0.0 0.0 0.0 0.0 0.0
3099.49515222193 301.369094252222 -3645.12854491391 0.0 0.0 0.0 0.0 0.0 0.0
2648.6845979954 446.528091608903 -3633.1519667773 0.0 0.0 0.0 0.0 0.0 0.0
2115.13992333359 627.020652547866 -3622.4610040662 0.0 0.0 0.0 0.0 0.0 0.0
1472.08217317647 826.158766147835 -3621.55921334394 0.0 0.0 0.0 0.0 0.0 0.0
699.596459267205 996.469139344716 -3647.9366302105 0.0 0.0 0.0 0.0 0.0 0.0
-191.40499014849 1030.06884281787 -3731.08501330901 0.0 0.0 0.0 0.0 0.0 0.0
-1113.64349696082 704.801345765373 -3906.12005539722 0.0 0.0 0.0 0.0 0.0 0.0
-1854.43208642478 -394.229852747122 -4175.75032219469 0.0 0.0 0.0 0.0 0.0 0.0
-2109.26734387729 -2910.51157355014 -4409.71040117108 0.0 0.0 0.0 0.0 0.0 0.0
-1737.66404651929 -7466.27238013529 -4197.30281750677 0.0 0.0 0.0 0.0 0.0 0.0
-1161.80083755079 -13716.5376381508 -2841.12179685447 0.0 0.0 0.0 0.0 0.0 0.0
-1831.57034458045 -19237.6079014785 -1477.38710324944 0.0 0.0 0.0 0.0 0.0 0.0
28213.2955547065 12091.4123805885 -636.805426941216 0.0 0.0 0.0 0.0 0.0 0.0
27355.7360426949 6460.22998209187 -380.995067803732 0.0 0.0 0.0 0.0 0.0 0.0
28236.5954175146 2817.67989069617 -2692.75521764446 0.0 0.0 0.0 0.0 0.0 0.0
28460.4161980791 800.812589067919 -3605.14958756555 0.0 0.0 0.0 0.0 0.0 0.0
28096.7267543163 -7.74067344753894 -3821.84082979751 0.0 0.0 0.0 0.0 0.0 0.0
27410.7054650694 -205.45148647925 -3788.90235886344 0.0 0.0 0.0 0.0 0.0 0.0
26635.8667571755 -184.021662662344 -3707.47250990804 0.0 0.0 0.0 0.0 0.0 0.0
25887.8492638685 -119.153462529523 -3641.59276862982 0.0 0.0 0.0 0.0 0.0 0.0
25193.7746823757 -66.0738422865634 -3600.51342358245 0.0 0.0 0.0 0.0 0.0 0.0
24543.4299099836 -32.9035541466383 -3578.20004706032 0.0 0.0 0.0 0.0 0.0 0.0
23920.1097478069 -14.8818529775272 -3567.2604690005 0.0 0.0 0.0 0.0 0.0 0.0
23311.1933899021 -6.05041140054163 -3562.38713717881 0.0 0.0 0.0 0.0 0.0 0.0
22709.172337317 -2.11745756436721 -3560.4423948961 0.0 0.0 0.0 0.0 0.0 0.0
22110.1342186868 -0.54760325460029 -3559.78164931611 0.0 0.0 0.0 0.0 0.0 0.0
21512.2389981564 -0.0133256597737272 -3559.6227329087 0.0 0.0 0.0 0.0 0.0 0.0
20914.7045928078 0.116201083888882 -3559.62824358127 0.0 0.0 0.0 0.0 0.0 0.0
20317.2380929037 0.112459842047429 -3559.66918975502 0.0 0.0 0.0 0.0 0.0 0.0
19719.7510513249 0.0782532906687265 -3559.7050908742 0.0 0.0 0.0 0.0 0.0 0.0
19122.2300618926 0.0441002489019411 -3559.7286771521 0.0 0.0 0.0 0.0 0.0 0.0
18524.6840494655 0.0123965522188882 -3559.74291309182 0.0 0.0 0.0 0.0 0.0 0.0
17927.1260827684 -0.0246117855899683 -3559.75274746461 0.0 0.0 0.0 0.0 0.0 0.0
17329.5693229517 -0.0787893488595728 -3559.7629285712 0.0 0.0 0.0 0.0 0.0 0.0
16732.0281518574 -0.164884010616333 -3559.77799506757 0.0 0.0 0.0 0.0 0.0 0.0
16134.5209589728 -0.300687009766989 -3559.8028500127 0.0 0.0 0.0 0.0 0.0 0.0
15537.0733360689 -0.506759535013316 -3559.84330298612 0.0 0.0 0.0 0.0 0.0 0.0
14939.7211246313 -0.804309050035044 -3559.90628810667 0.0 0.0 0.0 0.0 0.0 0.0
14342.5126446698 -1.20949486427298 -3559.99946908464 0.0 0.0 0.0 0.0 0.0 0.0
13745.5087890953 -1.72166428485434 -3560.12977168381 0.0 0.0 0.0 0.0 0.0 0.0
13148.7785228621 -2.30187530082867 -3560.30008752845 0.0 0.0 0.0 0.0 0.0 0.0
12552.3855762936 -2.83663880696668 -3560.50298053631 0.0 0.0 0.0 0.0 0.0 0.0
11956.359604014 -3.08029702244039 -3560.70970718537 0.0 0.0 0.0 0.0 0.0 0.0
11360.6416328263 -2.56823725079403 -3560.85228328879 0.0 0.0 0.0 0.0 0.0 0.0
10764.989146959 -0.49297455010219 -3560.79584106845 0.0 0.0 0.0 0.0 0.0 0.0
10168.8206951745 4.46266271266927 -3560.29847060281 0.0 0.0 0.0 0.0 0.0 0.0
9570.97370916315 14.3343657750431 -3558.95685981687 0.0 0.0 0.0 0.0 0.0 0.0
8969.34280458813 32.112120233121 -3556.13975592496 0.0 0.0 0.0 0.0 0.0 0.0
8360.36002761961 61.9617419179237 -3550.92017107827 0.0 0.0 0.0 0.0 0.0 0.0
7738.27446988586 109.346775952489 -3542.03593436233 0.0 0.0 0.0 0.0 0.0 0.0
7094.18973449396 180.89427201032 -3527.94424109086 0.0 0.0 0.0 0.0 0.0 0.0
6414.83286182167 283.732333558745 -3507.1014335967 0.0 0.0 0.0 0.0 0.0 0.0
5681.09642070752 423.834188175538 -3478.71063265318 0.0 0.0 0.0 0.0 0.0 0.0
4866.63974634785 602.535072937204 -3444.3549852754 0.0 0.0 0.0 0.0 0.0 0.0
3937.61127019202 809.602583590133 -3411.15516295806 0.0 0.0 0.0 0.0 0.0 0.0
2857.14281300455 1009.59747454393 -3397.18394959924 0.0 0.0 0.0 0.0 0.0 0.0
1605.29356121042 1113.98178954306 -3438.89004912869 0.0 0.0 0.0 0.0 0.0 0.0
233.940313137873 920.278383260409 -3594.08764017617 0.0 0.0 0.0 0.0 0.0 0.0
-1040.84479620894 -10.6022486095181 -3913.71835916408 0.0 0.0 0.0 0.0 0.0 0.0
-1806.70292112738 -2511.61340472675 -4323.67045357091 0.0 0.0 0.0 0.0 0.0 0.0
-1744.8855502355 -7702.65701172965 -4383.43381903904 0.0 0.0 0.0 0.0 0.0 0.0
-1303.45535477527 -15796.3660306544 -3147.7831533221 0.0 0.0 0.0 0.0 0.0 0.0
-2565.08473788051 -23854.3347774133 -1704.88305366197 0.0 0.0 0.0 0.0 0.0 0.0
42549.0992542364 18235.3282518156 -1219.50205746801 0.0 0.0 0.0 0.0 0.0 0.0
41151.6829659716 9403.79120478105 -821.677218708959 0.0 0.0 0.0 0.0 0.0 0.0
42456.5944333991 3882.07120625009 -2847.42148455081 0.0 0.0 0.0 0.0 0.0 0.0
42728.9528061584 1003.91888176908 -3504.59898002785 0.0 0.0 0.0 0.0 0.0 0.0
42113.2544202274 -64.7640785365493 -3593.58370751745 0.0 0.0 0.0 0.0 0.0 0.0
41051.2900198269 -294.249349391504 -3532.72218590754 0.0 0.0 0.0 0.0 0.0 0.0
39893.304178041 -249.337423043289 -3465.69245228408 0.0 0.0 0.0 0.0 0.0 0.0
38790.6973703909 -158.506164855638 -3420.98434910669 0.0 0.0 0.0 0.0 0.0 0.0
37767.6685660263 -87.1527163959054 -3395.71830152497 0.0 0.0 0.0 0.0 0.0 0.0
36803.8613318749 -43.1300507982842 -3382.81183320028 0.0 0.0 0.0 0.0 0.0 0.0
35875.1937547966 -19.3921905588168 -3376.77762072038 0.0 0.0 0.0 0.0 0.0 0.0
34964.8465228724 -7.82899113546227 -3374.21171591042 0.0 0.0 0.0 0.0 0.0 0.0
34063.1235393718 -2.70922637311378 -3373.24765999346 0.0 0.0 0.0 0.0 0.0 0.0
33165.066961971 -0.681637961811248 -3372.95375660306 0.0 0.0 0.0 0.0 0.0 0.0
32268.3829793199 -0.000852399389259517 -3372.9054457066 0.0 0.0 0.0 0.0 0.0 0.0
31372.113198505 0.157721532730648 -3372.92803468123 0.0 0.0 0.0 0.0 0.0 0.0
30475.90770911 0.147117996171801 -3372.95924911761 0.0 0.0 0.0 0.0 0.0 0.0
29579.6661657878 0.100255732988444 -3372.98233554412 0.0 0.0 0.0 0.0 0.0 0.0
28683.3771719461 0.0566536992109832 -3372.99652079144 0.0 0.0 0.0 0.0 0.0 0.0
27787.0538818079 0.0202518800970211 -3373.00542245009 0.0 0.0 0.0 0.0 0.0 0.0
26890.7122346596 -0.0170303676704862 -3373.01333802944 0.0 0.0 0.0 0.0 0.0 0.0
25994.3661968872 -0.067268072170009 -3373.02463887639 0.0 0.0 0.0 0.0 0.0 0.0
25098.0289396463 -0.144757893865062 -3373.04421030319 0.0 0.0 0.0 0.0 0.0 0.0
24201.7156993922 -0.266163519855581 -3373.07811746712 0.0 0.0 0.0 0.0 0.0 0.0
23305.4469261699 -0.45045581413342 -3373.13414999406 0.0 0.0 0.0 0.0 0.0 0.0
22409.2512746742 -0.717223643328907 -3373.22198669528 0.0 0.0 0.0 0.0 0.0 0.0
21513.1680363936 -1.08179027401638 -3373.35260075814 0.0 0.0 0.0 0.0 0.0 0.0
20617.2481496931 -1.54491582664468 -3373.53625746027 0.0 0.0 0.0 0.0 0.0 0.0
19721.5520489327 -2.07384786435432 -3373.77804679368 0.0 0.0 0.0 0.0 0.0 0.0
18826.1412602077 -2.57019738940562 -3374.06933017289 0.0 0.0 0.0 0.0 0.0 0.0
17931.0586777344 -2.81873512388938 -3374.37276362566 0.0 0.0 0.0 0.0 0.0 0.0
17036.2896946034 -2.41004792857484 -3374.59773969051 0.0 0.0 0.0 0.0 0.0 0.0
16141.6926413197 -0.629698662743067 -3374.56232797218 0.0 0.0 0.0 0.0 0.0 0.0
15246.8821306798 3.69184214277402 -3373.93746272623 0.0 0.0 0.0 0.0 0.0 0.0
14351.0426797227 12.3690476232769 -3372.16998051425 0.0 0.0 0.0 0.0 0.0 0.0
13452.6418821831 28.0804829933081 -3368.38456570847 0.0 0.0 0.0 0.0 0.0 0.0
12549.0011705039 54.5867711637138 -3361.2732552933 0.0 0.0 0.0 0.0 0.0 0.0
11635.6653778768 96.8841854306688 -3348.99925061237 0.0 0.0 0.0 0.0 0.0 0.0
10705.4844603488 161.178812548771 -3329.17698415715 0.0 0.0 0.0 0.0 0.0 0.0
9747.27974131515 254.486632594565 -3299.05509615779 0.0 0.0 0.0 0.0 0.0 0.0
8743.9100047608 383.518415585745 -3256.14622831369 0.0 0.0 0.0 0.0 0.0 0.0
7669.57316376803 552.242394201772 -3199.74991299547 0.0 0.0 0.0 0.0 0.0 0.0
6486.52486794887 756.811322312276 -3134.16854008511 0.0 0.0 0.0 0.0 0.0 0.0
5143.03317429939 974.830360659032 -3074.9157426284 0.0 0.0 0.0 0.0 0.0 0.0
3582.41757700595 1142.28695662865 -3059.64060386489 0.0 0.0 0.0 0.0 0.0 0.0
1795.10343431687 1097.06529928891 -3162.71413553154 0.0 0.0 0.0 0.0 0.0 0.0
-43.329477653609 427.301794076131 -3490.42672195214 0.0 0.0 0.0 0.0 0.0 0.0
-1420.97829059392 -1843.50903198532 -4068.66981570066 0.0 0.0 0.0 0.0 0.0 0.0
-1751.38658794527 -7480.04940073229 -4489.47544170882 0.0 0.0 0.0 0.0 0.0 0.0
-1481.01011907659 -17787.781450687 -3502.81124737201 0.0 0.0 0.0 0.0 0.0 0.0
-3628.11083323723 -29444.5005543794 -2011.03046239428 0.0 0.0 0.0 0.0 0.0 0.0
57197.447543946 24513.1918045483 -2077.51818855241 0.0 0.0 0.0 0.0 0.0 0.0
55092.2142063259 11941.2128236252 -1446.83574198345 0.0 0.0 0.0 0.0 0.0 0.0
56793.9879628412 4507.14399922196 -3026.94429436002 0.0 0.0 0.0 0.0 0.0 0.0
57026.8384357891 993.136044746307 -3323.04026469386 0.0 0.0 0.0 0.0 0.0 0.0
56072.2685804772 -159.599682654803 -3257.85326264912 0.0 0.0 0.0 0.0 0.0 0.0
54604.800099179 -357.261432083709 -3177.72243805234 0.0 0.0 0.0 0.0 0.0 0.0
53079.1388441604 -284.154378768206 -3136.65276893729 0.0 0.0 0.0 0.0 0.0 0.0
51649.11238836 -176.952603718177 -3119.87661269508 0.0 0.0 0.0 0.0 0.0 0.0
50318.1219213117 -96.190618839988 -3113.72127459193 0.0 0.0 0.0 0.0 0.0 0.0
49053.2075972551 -47.1895220828574 -3111.74283062776 0.0 0.0 0.0 0.0 0.0 0.0
47825.5553279978 -21.0509105071396 -3111.2632182576 0.0 0.0 0.0 0.0 0.0 0.0
46616.7351485047 -8.41271552110993 -3111.25796680433 0.0 0.0 0.0 0.0 0.0 0.0
45416.5428987046 -2.86394650820512 -3111.35790590221 0.0 0.0 0.0 0.0 0.0 0.0
44219.9175917207 -0.689497385501454 -3111.4494588575 0.0 0.0 0.0 0.0 0.0 0.0
43024.5732863828 0.0268137034054234 -3111.50968690261 0.0 0.0 0.0 0.0 0.0 0.0
41829.5830013069 0.184271605101458 -3111.54326124622 0.0 0.0 0.0 0.0 0.0 0.0
40634.6229736014 0.164578710680871 -3111.55966918143 0.0 0.0 0.0 0.0 0.0 0.0
39439.6095836154 0.109946883636439 -3111.56669357273 0.0 0.0 0.0 0.0 0.0 0.0
38244.5404961101 0.0619656937524269 -3111.56960618611 0.0 0.0 0.0 0.0 0.0 0.0
37049.4329403152 0.0246239057996718 -3111.57203591078 0.0 0.0 0.0 0.0 0.0 0.0
35854.3038358695 -0.0101818559123785 -3111.57707313409 0.0 0.0 0.0 0.0 0.0 0.0
34659.1660236228 -0.0539902973923745 -3111.58824413422 0.0 0.0 0.0 0.0 0.0 0.0
33464.0297358888 -0.119863739691027 -3111.61033081093 0.0 0.0 0.0 0.0 0.0 0.0
32268.9053056972 -0.222581904839899 -3111.65006229914 0.0 0.0 0.0 0.0 0.0 0.0
31073.8059412626 -0.378781935528423 -3111.71662772515 0.0 0.0 0.0 0.0 0.0 0.0
29878.7503572777 -0.605731898464001 -3111.82180655537 0.0 0.0 0.0 0.0 0.0 0.0
28683.7651955054 -0.917401008450724 -3111.97927998571 0.0 0.0 0.0 0.0 0.0 0.0
27488.8869138413 -1.31596188448384 -3112.20234490665 0.0 0.0 0.0 0.0 0.0 0.0
26294.1622955911 -1.77599552137235 -3112.49876246563 0.0 0.0 0.0 0.0 0.0 0.0
25099.6458990015 -2.21756581275167 -3112.86080228241 0.0 0.0 0.0 0.0 0.0 0.0
23905.391522471 -2.46312352806672 -3113.24767913247 0.0 0.0 0.0 0.0 0.0 0.0
22711.4329439651 -2.17215431242221 -3113.55656525475 0.0 0.0 0.0 0.0 0.0 0.0
21517.7465861749 -0.747091109255052 -3113.57735403084 0.0 0.0 0.0 0.0 0.0 0.0
20324.1850218734 2.79491464698367 -3112.92570727219 0.0 0.0 0.0 0.0 0.0 0.0
19130.3647483286 9.98602900720834 -3110.94934373212 0.0 0.0 0.0 0.0 0.0 0.0
17935.4831111371 23.1012234500276 -3106.60530018825 0.0 0.0 0.0 0.0 0.0 0.0
16738.0249558841 45.3607389190488 -3098.31320816621 0.0 0.0 0.0 0.0 0.0 0.0
15535.293570256 81.0985294278448 -3083.8052477626 0.0 0.0 0.0 0.0 0.0 0.0
14322.6531020107 135.821215125855 -3060.02356323216 0.0 0.0 0.0 0.0 0.0 0.0
13092.2776627947 216.029539767319 -3023.1726275899 0.0 0.0 0.0 0.0 0.0 0.0
11831.06002291 328.599645167447 -2969.13699395227 0.0 0.0 0.0 0.0 0.0 0.0
10517.0570953751 479.29131608726 -2894.67868626712 0.0 0.0 0.0 0.0 0.0 0.0
9113.79529251043 669.612434728252 -2800.20386516012 0.0 0.0 0.0 0.0 0.0 0.0
7561.93763489318 889.411095660576 -2695.73952011411 0.0 0.0 0.0 0.0 0.0 0.0
5771.63293145128 1099.24920650996 -2613.13697888113 0.0 0.0 0.0 0.0 0.0 0.0
3649.22252023272 1189.25266289747 -2630.04399217696 0.0 0.0 0.0 0.0 0.0 0.0
1259.04892582492 840.111632085912 -2900.44885481728 0.0 0.0 0.0 0.0 0.0 0.0
-844.210555000502 -934.294325007954 -3595.01268486544 0.0 0.0 0.0 0.0 0.0 0.0
-1691.18580109386 -6602.76646534175 -4457.55760136602 0.0 0.0 0.0 0.0 0.0 0.0
-1635.35563634098 -19430.3828683263 -3915.99028060487 0.0 0.0 0.0 0.0 0.0 0.0
-5226.4196603391 -36481.4015941426 -2441.25673320857 0.0 0.0 0.0 0.0 0.0 0.0
72341.2142555868 31003.3775381086 -3261.70587880805 0.0 0.0 0.0 0.0 0.0 0.0
69227.21809826 13807.2871368342 -2257.90441398809 0.0 0.0 0.0 0.0 0.0 0.0
71276.7528221266 4511.44044336376 -3178.82334905175 0.0 0.0 0.0 0.0 0.0 0.0
71329.4257687465 752.260839848115 -3017.58748415583 0.0 0.0 0.0 0.0 0.0 0.0
69919.2032889781 -260.453523303335 -2806.80992843783 0.0 0.0 0.0 0.0 0.0 0.0
68029.2883684821 -377.081144710817 -2733.74848267492 0.0 0.0 0.0 0.0 0.0 0.0
66174.7510651396 -283.779495744529 -2731.01942779266 0.0 0.0 0.0 0.0 0.0 0.0
64457.6489693472 -172.981115927991 -2745.26516267044 0.0 0.0 0.0 0.0 0.0 0.0
62844.0022463623 -92.6325634893037 -2758.44215306037 0.0 0.0 0.0 0.0 0.0 0.0
61291.4883807641 -45.0143020306532 -2766.9308929951 0.0 0.0 0.0 0.0 0.0 0.0
59771.4781811334 -19.8710933629427 -2771.58992000287 0.0 0.0 0.0 0.0 0.0 0.0
58267.0927896522 -7.84201092205331 -2773.87656591861 0.0 0.0 0.0 0.0 0.0 0.0
56769.5815436985 -2.6117211128585 -2774.89415751536 0.0 0.0 0.0 0.0 0.0 0.0
55274.7694623205 -0.590379885234142 -2775.29899944927 0.0 0.0 0.0 0.0 0.0 0.0
53780.8516648763 0.0592929558788455 -2775.43551468729 0.0 0.0 0.0 0.0 0.0 0.0
52287.1329154035 0.190734460780732 -2775.46712226176 0.0 0.0 0.0 0.0 0.0 0.0
50793.3915630233 0.162575425889372 -2775.46429648486 0.0 0.0 0.0 0.0 0.0 0.0
49299.5839660147 0.106405640111916 -2775.45416696253 0.0 0.0 0.0 0.0 0.0 0.0
47805.720795295 0.0596238420512236 -2775.44575256685 0.0 0.0 0.0 0.0 0.0 0.0
46311.8216036207 0.02512279732764 -2775.44172121216 0.0 0.0 0.0 0.0 0.0 0.0
44817.9017250066 -0.00477987459453288 -2775.4435041893 0.0 0.0 0.0 0.0 0.0 0.0
43323.9707792409 -0.0403390922801918 -2775.45345691944 0.0 0.0 0.0 0.0 0.0 0.0
41830.0344510321 -0.0926852363645594 -2775.47587249996 0.0 0.0 0.0 0.0 0.0 0.0
40336.0967010693 -0.174093998981334 -2775.51761270177 0.0 0.0 0.0 0.0 0.0 0.0
38842.1617599243 -0.298275511937391 -2775.58855936581 0.0 0.0 0.0 0.0 0.0 0.0
37348.2360042113 -0.479580943096153 -2775.70173826761 0.0 0.0 0.0 0.0 0.0 0.0
35854.329992203 -0.730066270534735 -2775.8726570569 0.0 0.0 0.0 0.0 0.0 0.0
34360.4609066053 -1.05294691211839 -2776.11701858343 0.0 0.0 0.0 0.0 0.0 0.0
32866.6555321426 -1.43028351312114 -2776.44544450643 0.0 0.0 0.0 0.0 0.0 0.0
31372.9536855309 -1.80184529401504 -2776.85311898283 0.0 0.0 0.0 0.0 0.0 0.0
29879.4116536584 -2.03110258193374 -2777.30131529037 0.0 0.0 0.0 0.0 0.0 0.0
28386.1045557906 -1.85340795315824 -2777.68663087767 0.0 0.0 0.0 0.0 0.0 0.0
26893.1254080825 -0.800990410345548 -2777.79256329508 0.0 0.0 0.0 0.0 0.0 0.0
25400.5766118278 1.90000602336931 -2777.21712294719 0.0 0.0 0.0 0.0 0.0 0.0
23908.5457549007 7.46272251542086 -2775.27010158835 0.0 0.0 0.0 0.0 0.0 0.0
22417.0502761159 17.6999632713605 -2770.83543846249 0.0 0.0 0.0 0.0 0.0 0.0
20925.9209999591 35.1994366074887 -2762.19957295461 0.0 0.0 0.0 0.0 0.0 0.0
19434.5658459739 63.4880505095753 -2746.85841772516 0.0 0.0 0.0 0.0 0.0 0.0
17941.4963685158 107.140295649203 -2721.33842256277 0.0 0.0 0.0 0.0 0.0 0.0
16443.3904948108 171.765150932706 -2681.1084601496 0.0 0.0 0.0 0.0 0.0 0.0
14933.228386452 263.751158504463 -2620.7404776639 0.0 0.0 0.0 0.0 0.0 0.0
13396.7124216951 389.62092183461 -2534.62561104722 0.0 0.0 0.0 0.0 0.0 0.0
11805.1676559136 554.263689040008 -2418.93537573227 0.0 0.0 0.0 0.0 0.0 0.0
10103.4050311491 757.503267945791 -2276.22901297114 0.0 0.0 0.0 0.0 0.0 0.0
8187.16160959971 981.134842459554 -2126.60816294742 0.0 0.0 0.0 0.0 0.0 0.0
5878.34890136279 1160.11553106479 -2033.37800699519 0.0 0.0 0.0 0.0 0.0 0.0
3040.01206036643 1111.66079953053 -2165.42385742561 0.0 0.0 0.0 0.0 0.0 0.0
116.971307804875 80.8203342342969 -2854.01114124006 0.0 0.0 0.0 0.0 0.0 0.0
-1426.72776901617 -4882.97879948504 -4184.21887901302 0.0 0.0 0.0 0.0 0.0 0.0
-1595.994625758 -20207.6391172276 -4377.370066289 0.0 0.0 0.0 0.0 0.0 0.0
-7701.70481682964 -45754.0436364583 -3058.17844903005 0.0 0.0 0.0 0.0 0.0 0.0
88275.8053069541 37832.4879886946 -4853.28429697593 0.0 0.0 0.0 0.0 0.0 0.0
83597.4271828987 14555.2218136505 -3238.20149538742 0.0 0.0 0.0 0.0 0.0 0.0
85915.2978004971 3718.31620450251 -3205.98314638142 0.0 0.0 0.0 0.0 0.0 0.0
85565.2946528349 353.513062717895 -2537.10793039738 0.0 0.0 0.0 0.0 0.0 0.0
83563.1705454052 -304.570253625912 -2248.03302730271 0.0 0.0 0.0 0.0 0.0 0.0
81280.4344368027 -345.149350651012 -2220.97315131549 0.0 0.0 0.0 0.0 0.0 0.0
79174.0346213467 -251.194143104538 -2262.08023075194 0.0 0.0 0.0 0.0 0.0 0.0
77220.2542254615 -148.486324159174 -2304.86813765919 0.0 0.0 0.0 0.0 0.0 0.0
75348.917487877 -78.5996018655278 -2333.74177215626 0.0 0.0 0.0 0.0 0.0 0.0
73521.3160513366 -37.7141285299731 -2350.18038238938 0.0 0.0 0.0 0.0 0.0 0.0
71714.3828399795 -16.4678343024607 -2358.5117324917 0.0 0.0 0.0 0.0 0.0 0.0
69916.6377690587 -6.40000306596994 -2362.34693228906 0.0 0.0 0.0 0.0 0.0 0.0
68122.562907321 -2.07592945023498 -2363.93836174637 0.0 0.0 0.0 0.0 0.0 0.0
66329.7551011071 -0.430850562626802 -2364.51361620644 0.0 0.0 0.0 0.0 0.0 0.0
64537.2647757445 0.0819818567360926 -2364.67446461379 0.0 0.0 0.0 0.0 0.0 0.0
62744.7752696664 0.174523198076713 -2364.68940209498 0.0 0.0 0.0 0.0 0.0 0.0
60952.2139735148 0.142088665130359 -2364.66580424524 0.0 0.0 0.0 0.0 0.0 0.0
59159.5869099472 0.0911133800873358 -2364.6404814932 0.0 0.0 0.0 0.0 0.0 0.0
57366.9158201314 0.0506735151902831 -2364.62282677297 0.0 0.0 0.0 0.0 0.0 0.0
55574.2186497048 0.0221388818390551 -2364.61361810778 0.0 0.0 0.0 0.0 0.0 0.0
53781.5060047265 -0.00118838246817177 -2364.61244795619 0.0 0.0 0.0 0.0 0.0 0.0
51988.7822729637 -0.0276406144967041 -2364.62039449714 0.0 0.0 0.0 0.0 0.0 0.0
50196.0473385682 -0.0659162003375968 -2364.64098158593 0.0 0.0 0.0 0.0 0.0 0.0
48403.2978075438 -0.125401783358029 -2364.68066513938 0.0 0.0 0.0 0.0 0.0 0.0
46610.5277550965 -0.216529653307589 -2364.74920174018 0.0 0.0 0.0 0.0 0.0 0.0
44817.729379986 -0.350337997007955 -2364.85979218057 0.0 0.0 0.0 0.0 0.0 0.0
43024.8941288581 -0.536464741155214 -2365.02855562417 0.0 0.0 0.0 0.0 0.0 0.0
41232.015058268 -0.778512751550807 -2365.27251430324 0.0 0.0 0.0 0.0 0.0 0.0
39439.0915251012 -1.06520824398285 -2365.60475444561 0.0 0.0 0.0 0.0 0.0 0.0
37646.1377734906 -1.3551016001602 -2366.02471296182 0.0 0.0 0.0 0.0 0.0 0.0
35853.1976180862 -1.55180310776268 -2366.50058901316 0.0 0.0 0.0 0.0 0.0 0.0
34060.3681545833 -1.4660395860501 -2366.93971142886 0.0 0.0 0.0 0.0 0.0 0.0
32267.8360885887 -0.760406770050395 -2367.14141065284 0.0 0.0 0.0 0.0 0.0 0.0
30475.930453626 1.12703711771337 -2366.72579619038 0.0 0.0 0.0 0.0 0.0 0.0
28685.1942963098 5.0827123934032 -2365.03129435235 0.0 0.0 0.0 0.0 0.0 0.0
26896.4734829971 12.4401121956444 -2360.97463356041 0.0 0.0 0.0 0.0 0.0 0.0
25111.0094846819 25.118811919142 -2352.87031669016 0.0 0.0 0.0 0.0 0.0 0.0
23330.4971778492 45.7661905752075 -2338.21423639484 0.0 0.0 0.0 0.0 0.0 0.0
21557.015364782 77.8810057392957 -2313.45009290208 0.0 0.0 0.0 0.0 0.0 0.0
19792.6216121304 125.887610264186 -2273.76338590384 0.0 0.0 0.0 0.0 0.0 0.0
18038.1967982692 195.13935580219 -2212.99057093137 0.0 0.0 0.0 0.0 0.0 0.0
16290.5690204046 291.727370385545 -2123.84133166928 0.0 0.0 0.0 0.0 0.0 0.0
14536.4359283202 422.193263246568 -1998.80745856973 0.0 0.0 0.0 0.0 0.0 0.0
12737.6310427079 591.062863189013 -1832.99286389617 0.0 0.0 0.0 0.0 0.0 0.0
10807.3862228717 799.640156223781 -1631.15967721087 0.0 0.0 0.0 0.0 0.0 0.0
8535.8383100374 1009.7386444405 -1430.10411893241 0.0 0.0 0.0 0.0 0.0 0.0
5525.19186442011 1128.82075383373 -1358.82253617688 0.0 0.0 0.0 0.0 0.0 0.0
1801.42396776281 892.443893269991 -1836.88011121503 0.0 0.0 0.0 0.0 0.0 0.0
-685.579745704106 -2294.91973374373 -3505.93162769863 0.0 0.0 0.0 0.0 0.0 0.0
-927.943114884021 -19129.0306249209 -4820.89546893421 0.0 0.0 0.0 0.0 0.0 0.0
-11587.0671888365 -58542.8645376406 -3928.59889517231 0.0 0.0 0.0 0.0 0.0 0.0
105540.659327357 45231.711140296 -6984.34910013662 0.0 0.0 0.0 0.0 0.0 0.0
98203.2528913874 13364.5573667909 -4306.05334773196 0.0 0.0 0.0 0.0 0.0 0.0
100686.258421384 2077.26310334493 -2930.63812871534 0.0 0.0 0.0 0.0 0.0 0.0
99569.5529624623 41.3042047100425 -1850.51319018764 0.0 0.0 0.0 0.0 0.0 0.0
96863.3668813323 -239.031293293403 -1628.11532841456 0.0 0.0 0.0 0.0 0.0 0.0
94333.4743839046 -284.773728998993 -1665.40463263622 0.0 0.0 0.0 0.0 0.0 0.0
92096.6245400638 -190.604109038504 -1744.73131915978 0.0 0.0 0.0 0.0 0.0 0.0
89949.3073218612 -111.634148355482 -1805.43823406216 0.0 0.0 0.0 0.0 0.0 0.0
87842.0804580954 -58.016033301803 -1842.72420287007 0.0 0.0 0.0 0.0 0.0 0.0
85747.4913098078 -27.5727760987174 -1862.7321814281 0.0 0.0 0.0 0.0 0.0 0.0
83656.6842038776 -11.8899271053051 -1872.47908051204 0.0 0.0 0.0 0.0 0.0 0.0
81566.4374326944 -4.55099301655355 -1876.79297941332 0.0 0.0 0.0 0.0 0.0 0.0
79475.9169970317 -1.43378766844035 -1878.50222807518 0.0 0.0 0.0 0.0 0.0 0.0
77385.0212924657 -0.268036345147266 -1879.07541634707 0.0 0.0 0.0 0.0 0.0 0.0
75293.8487308765 0.0835950038708688 -1879.20765994797 0.0 0.0 0.0 0.0 0.0 0.0
73202.5093277571 0.138344572485948 -1879.19699332158 0.0 0.0 0.0 0.0 0.0 0.0
71111.0812058135 0.108217317330855 -1879.15661130573 0.0 0.0 0.0 0.0 0.0 0.0
69019.6102774542 0.0681152686811402 -1879.12179777889 0.0 0.0 0.0 0.0 0.0 0.0
66928.1201942196 0.0375940678150073 -1879.09918100398 0.0 0.0 0.0 0.0 0.0 0.0
64836.6212363924 0.0168252395378659 -1879.08727697993 0.0 0.0 0.0 0.0 0.0 0.0
62745.1159451175 0.000636135438981 -1879.08411370491 0.0 0.0 0.0 0.0 0.0 0.0
60653.6019008387 -0.0170030023382424 -1879.08966320816 0.0 0.0 0.0 0.0 0.0 0.0
58562.0725552883 -0.0421746155079745 -1879.1065283181 0.0 0.0 0.0 0.0 0.0 0.0
56470.5168746798 -0.0813240501429391 -1879.14023304511 0.0 0.0 0.0 0.0 0.0 0.0
54378.9183633527 -0.141595199005678 -1879.19949783639 0.0 0.0 0.0 0.0 0.0 0.0
52287.2540004265 -0.230634415240274 -1879.29641365795 0.0 0.0 0.0 0.0 0.0 0.0
50195.4938036287 -0.355363050568485 -1879.44612252501 0.0 0.0 0.0 0.0 0.0 0.0
48103.6021804953 -0.519025813226108 -1879.66528527688 0.0 0.0 0.0 0.0 0.0 0.0
46011.5430007491 -0.715474477014141 -1879.96816701653 0.0 0.0 0.0 0.0 0.0 0.0
43919.2915081777 -0.919190434127813 -1880.35853273807 0.0 0.0 0.0 0.0 0.0 0.0
41826.8578734483 -1.06902939178144 -1880.81468409262 0.0 0.0 0.0 0.0 0.0 0.0
39734.329422475 -1.04317028244077 -1881.26388516213 0.0 0.0 0.0 0.0 0.0 0.0
37641.9413008314 -0.622417555017819 -1881.54119001172 0.0 0.0 0.0 0.0 0.0 0.0
35550.1882555845 0.560924158060516 -1881.32647368952 0.0 0.0 0.0 0.0 0.0 0.0
33459.9925699441 3.09061290692352 -1880.0526106332 0.0 0.0 0.0 0.0 0.0 0.0
31372.943373845 7.85073786736302 -1876.77774278989 0.0 0.0 0.0 0.0 0.0 0.0
29291.6173927766 16.1241719764093 -1870.01612368334 0.0 0.0 0.0 0.0 0.0 0.0
27219.9749915516 29.699625295968 -1857.52575057067 0.0 0.0 0.0 0.0 0.0 0.0
25163.7856715455 50.9791711871103 -1836.05793518436 0.0 0.0 0.0 0.0 0.0 0.0
23130.9568143506 83.083543702679 -1801.08319959626 0.0 0.0 0.0 0.0 0.0 0.0
21131.4441957195 129.947972954746 -1746.52826389552 0.0 0.0 0.0 0.0 0.0 0.0
19176.1282076266 196.484289244092 -1664.57361469393 0.0 0.0 0.0 0.0 0.0 0.0
17272.7425883785 288.524574427142 -1545.72764891281 0.0 0.0 0.0 0.0 0.0 0.0
15417.0198995648 413.733538085535 -1379.40331231639 0.0 0.0 0.0 0.0 0.0 0.0
13560.5992449342 575.064199034559 -1157.62174822752 0.0 0.0 0.0 0.0 0.0 0.0
11580.1169888071 788.359444941574 -883.67294448448 0.0 0.0 0.0 0.0 0.0 0.0
8941.2516327124 906.714878026567 -623.234311481779 0.0 0.0 0.0 0.0 0.0 0.0
4786.83127646937 1028.82746736024 -672.391539355234 0.0 0.0 0.0 0.0 0.0 0.0
1056.68518388109 612.247776685371 -2231.31782985591 0.0 0.0 0.0 0.0 0.0 0.0
1408.55067927428 -14433.3966325001 -5042.43236215332 0.0 0.0 0.0 0.0 0.0 0.0
-17574.7239410887 -76786.8989662055 -5041.613832898 0.0 0.0 0.0 0.0 0.0 0.0
125292.417531128 53696.7503704833 -9879.73072464158 0.0 0.0 0.0 0.0 0.0 0.0
112880.595813675 8553.59555571282 -5145.52974601222 0.0 0.0 0.0 0.0 0.0 0.0
115539.00488859 218.081853417727 -2026.15296079529 0.0 0.0 0.0 0.0 0.0 0.0
112951.30737444 261.418345153332 -1103.80009922221 0.0 0.0 0.0 0.0 0.0 0.0
109630.538409756 -225.84543412647 -1004.41341277299 0.0 0.0 0.0 0.0 0.0 0.0
107269.509957424 -186.194727541813 -1100.10215212384 0.0 0.0 0.0 0.0 0.0 0.0
104971.713829945 -126.420371006287 -1190.06254088364 0.0 0.0 0.0 0.0 0.0 0.0
102670.633062455 -71.7461492094917 -1251.66247242804 0.0 0.0 0.0 0.0 0.0 0.0
100336.24587527 -36.9927953884617 -1286.78622773024 0.0 0.0 0.0 0.0 0.0 0.0
97976.5912707564 -17.3843917493759 -1304.94249937083 0.0 0.0 0.0 0.0 0.0 0.0
95601.3034912093 -7.42686483174839 -1313.47790635789 0.0 0.0 0.0 0.0 0.0 0.0
93217.6935068464 -2.80408786969929 -1317.12916671608 0.0 0.0 0.0 0.0 0.0 0.0
90830.065917395 -0.861166142560251 -1318.50942111948 0.0 0.0 0.0 0.0 0.0 0.0
88440.6804080004 -0.144758278911468 -1318.93473605038 0.0 0.0 0.0 0.0 0.0 0.0
86050.6092749543 0.0649824415013427 -1319.00714693762 0.0 0.0 0.0 0.0 0.0 0.0
83660.3146541458 0.0928511208476266 -1318.97579416464 0.0 0.0 0.0 0.0 0.0 0.0
81269.9731503622 0.0705264883654309 -1318.93028206487 0.0 0.0 0.0 0.0 0.0 0.0
78879.6402334645 0.0437598183161754 -1318.8955527811 0.0 0.0 0.0 0.0 0.0 0.0
76489.3257732842 0.024003888876905 -1318.87409217661 0.0 0.0 0.0 0.0 0.0 0.0
74099.0251504512 0.0109337561443681 -1318.86286116425 0.0 0.0 0.0 0.0 0.0 0.0
71708.7300110575 0.00113690497164498 -1318.85918406614 0.0 0.0 0.0 0.0 0.0 0.0
69318.4304284614 -0.00916835464158794 -1318.86239100688 0.0 0.0 0.0 0.0 0.0 0.0
66928.1136795249 -0.0236896084570617 -1318.87414027818 0.0 0.0 0.0 0.0 0.0 0.0
64537.7616968295 -0.0462948626191064 -1318.89852354094 0.0 0.0 0.0 0.0 0.0 0.0
62147.3479583717 -0.0812619565840578 -1318.94224724542 0.0 0.0 0.0 0.0 0.0 0.0
59756.8342440231 -0.133216620406529 -1319.01481662127 0.0 0.0 0.0 0.0 0.0 0.0
57366.1679217206 -0.206474792732479 -1319.12842253018 0.0 0.0 0.0 0.0 0.0 0.0
54975.2811134115 -0.303392456027723 -1319.29699232314 0.0 0.0 0.0 0.0 0.0 0.0
52584.0942860934 -0.421121242534355 -1319.53352882314 0.0 0.0 0.0 0.0 0.0 0.0
50192.528670175 -0.545897115202024 -1319.84437410885 0.0 0.0 0.0 0.0 0.0 0.0
47800.5346286995 -0.643677008785744 -1320.21836422883 0.0 0.0 0.0 0.0 0.0 0.0
45408.1468856215 -0.64562870233749 -1320.60798034636 0.0 0.0 0.0 0.0 0.0 0.0
43015.5824862237 -0.426753185181951 -1320.89858867582 0.0 0.0 0.0 0.0 0.0 0.0
40623.403417124 0.224098985436285 -1320.86080341474 0.0 0.0 0.0 0.0 0.0 0.0
38232.7724766162 1.64422182087583 -1320.08010143364 0.0 0.0 0.0 0.0 0.0 0.0
35845.837126357 4.34766455597673 -1317.85735814354 0.0 0.0 0.0 0.0 0.0 0.0
33466.2795562327 9.08589020315776 -1313.07423795276 0.0 0.0 0.0 0.0 0.0 0.0
31100.0684751059 16.9169711296172 -1304.01859040964 0.0 0.0 0.0 0.0 0.0 0.0
28756.4333930308 29.2824959361114 -1288.16626660806 0.0 0.0 0.0 0.0 0.0 0.0
26449.0437735223 48.0966213798856 -1261.91746649979 0.0 0.0 0.0 0.0 0.0 0.0
24197.2980909328 75.8676858123672 -1220.27657010569 0.0 0.0 0.0 0.0 0.0 0.0
22027.4083594161 115.88449419201 -1156.47620537643 0.0 0.0 0.0 0.0 0.0 0.0
19972.7055621731 172.635175624781 -1061.43439135159 0.0 0.0 0.0 0.0 0.0 0.0
18070.1515581484 251.948819512959 -923.384440625597 0.0 0.0 0.0 0.0 0.0 0.0
16353.0418718949 364.071685590631 -726.506930703265 0.0 0.0 0.0 0.0 0.0 0.0
14783.4702916675 505.080790571416 -457.031398047869 0.0 0.0 0.0 0.0 0.0 0.0
13292.0696206912 749.421200890124 -98.7023527456208 0.0 0.0 0.0 0.0 0.0 0.0
10011.6772626126 353.18254599237 201.151554552854 0.0 0.0 0.0 0.0 0.0 0.0
4816.0181326945 1840.01367693497 -406.653301741995 0.0 0.0 0.0 0.0 0.0 0.0
7773.16811222553 -3589.86434440617 -4555.6842390457 0.0 0.0 0.0 0.0 0.0 0.0
-25973.1488697776 -102886.662502872 -5921.11145206076 0.0 0.0 0.0 0.0 0.0 0.0
150546.625829569 64519.9824983866 -13953.5145639125 0.0 0.0 0.0 0.0 0.0 0.0
127299.446207813 -2776.80978178083 -3591.68628103323 0.0 0.0 0.0 0.0 0.0 0.0
130534.854170391 1961.10118277752 -1072.10312885098 0.0 0.0 0.0 0.0 0.0 0.0
124265.592384453 -132.173211786372 -441.386440760995 0.0 0.0 0.0 0.0 0.0 0.0
122260.254033431 -129.624921497118 -469.311722254225 0.0 0.0 0.0 0.0 0.0 0.0
120142.757823111 -124.99382247273 -542.288811596086 0.0 0.0 0.0 0.0 0.0 0.0
117868.121544601 -76.160638291778 -604.798519241584 0.0 0.0 0.0 0.0 0.0 0.0
115414.350466006 -42.8584147532674 -643.626910433822 0.0 0.0 0.0 0.0 0.0 0.0
112847.189089647 -21.5997479568177 -665.179546483709 0.0 0.0 0.0 0.0 0.0 0.0
110215.527525588 -10.0390865871195 -675.990798278061 0.0 0.0 0.0 0.0 0.0 0.0
107551.110210832 -4.22609050654137 -680.969039766354 0.0 0.0 0.0 0.0 0.0 0.0
104871.42543198 -1.56665679042999 -683.043602608551 0.0 0.0 0.0 0.0 0.0 0.0
102185.290620083 -0.463232052949024 -683.800503661112 0.0 0.0 0.0 0.0 0.0 0.0
99496.7549452808 -0.0646666401371476 -684.016897648115 0.0 0.0 0.0 0.0 0.0 0.0
96807.5029135188 0.0470219059643568 -684.041328951954 0.0 0.0 0.0 0.0 0.0 0.0
94118.146280466 0.0579342542732775 -684.014022954064 0.0 0.0 0.0 0.0 0.0 0.0
91428.8585399263 0.0424788042546425 -683.983324449044 0.0 0.0 0.0 0.0 0.0 0.0
88739.6582740258 0.0258863656417816 -683.961327058852 0.0 0.0 0.0 0.0 0.0 0.0
86050.5225580572 0.0140750264035887 -683.948130808093 0.0 0.0 0.0 0.0 0.0 0.0
83361.4253339683 0.00650993248927989 -683.941269190751 0.0 0.0 0.0 0.0 0.0 0.0
80672.3460117424 0.00108807100332342 -683.938824719416 0.0 0.0 0.0 0.0 0.0 0.0
77983.2678079724 -0.00438159886471112 -683.940192383987 0.0 0.0 0.0 0.0 0.0 0.0
75294.1732023345 -0.0119734148647694 -683.946161544794 0.0 0.0 0.0 0.0 0.0 0.0
72605.0387397044 -0.0238104598865903 -683.958925374403 0.0 0.0 0.0 0.0 0.0 0.0
69915.8295457936 -0.0422342218043923 -683.982170518673 0.0 0.0 0.0 0.0 0.0 0.0
67226.4935534176 -0.0698069214813586 -684.021200663559 0.0 0.0 0.0 0.0 0.0 0.0
64536.9558041457 -0.109001052627718 -684.082929733449 0.0 0.0 0.0 0.0 0.0 0.0
61847.1140995195 -0.161370874355271 -684.175454744691 0.0 0.0 0.0 0.0 0.0 0.0
59156.8388187923 -0.225890170415369 -684.306737219668 0.0 0.0 0.0 0.0 0.0 0.0
56465.9821486887 -0.295993839952644 -684.48165558604 0.0 0.0 0.0 0.0 0.0 0.0
53774.4056320963 -0.354688462317426 -684.696319508319 0.0 0.0 0.0 0.0 0.0 0.0
51082.0402223196 -0.366922890701971 -684.928053423367 0.0 0.0 0.0 0.0 0.0 0.0
48389.0002803547 -0.268269748252351 -685.118875774023 0.0 0.0 0.0 0.0 0.0 0.0
45695.7823749411 0.0510773668229376 -685.149670955129 0.0 0.0 0.0 0.0 0.0 0.0
43003.5912447983 0.767878506590932 -684.801665268724 0.0 0.0 0.0 0.0 0.0 0.0
40314.8483239565 2.15359737240033 -683.701396829973 0.0 0.0 0.0 0.0 0.0 0.0
37633.9518522979 4.6085686306069 -681.245221287703 0.0 0.0 0.0 0.0 0.0 0.0
34968.370799304 8.70297824345471 -676.499390341013 0.0 0.0 0.0 0.0 0.0 0.0
32330.1676267424 15.2262357962118 -668.071511921848 0.0 0.0 0.0 0.0 0.0 0.0
29738.0620079609 25.2539023021254 -653.946263511169 0.0 0.0 0.0 0.0 0.0 0.0
27220.1745406696 40.2452407791779 -631.272892192259 0.0 0.0 0.0 0.0 0.0 0.0
24817.6833291035 62.2605492359371 -596.061934715534 0.0 0.0 0.0 0.0 0.0 0.0
22589.6230080161 94.2151475534611 -542.754151681488 0.0 0.0 0.0 0.0 0.0 0.0
20620.0402682756 141.297148166541 -463.354137487574 0.0 0.0 0.0 0.0 0.0 0.0
19024.1418877484 209.259104554725 -346.632355176043 0.0 0.0 0.0 0.0 0.0 0.0
17974.4201168927 323.572475296975 -173.973971751605 0.0 0.0 0.0 0.0 0.0 0.0
17578.944642876 438.170016166144 69.7313102108273 0.0 0.0 0.0 0.0 0.0 0.0
18581.4106327387 993.137204613257 447.673604112148 0.0 0.0 0.0 0.0 0.0 0.0
13095.403564631 -2069.02919816164 325.146706804989 0.0 0.0 0.0 0.0 0.0 0.0
22931.2146243367 13416.0070610767 -2770.45224314709 0.0 0.0 0.0 0.0 0.0 0.0
-33665.4602232779 -137749.708028158 -3498.0207980326 0.0 0.0 0.0 0.0 0.0 0.0
197505.012870229 84645.0055158124 -19913.1309020392 0.0 0.0 0.0 0.0 0.0 0.0
146106.76219697 -5492.71720846069 -2881.73219832183 0.0 0.0 0.0 0.0 0.0 0.0
137554.156239151 4308.515406201 -305.957055165311 0.0 0.0 0.0 0.0 0.0 0.0
136728.443360504 2427.61019421778 -244.328521755838 0.0 0.0 0.0 0.0 0.0 0.0
136362.975109468 3315.99125359154 -187.732981514856 0.0 0.0 0.0 0.0 0.0 0.0
134616.20148252 3323.47511354368 -232.886099323621 0.0 0.0 0.0 0.0 0.0 0.0
132331.525877575 3373.68898425149 -256.526815135186 0.0 0.0 0.0 0.0 0.0 0.0
129661.508695853 3337.48141957096 -274.199752432256 0.0 0.0 0.0 0.0 0.0 0.0
126803.618067772 3281.79847392664 -283.46500438278 0.0 0.0 0.0 0.0 0.0 0.0
123850.013555012 3211.86074571709 -288.260431476147 0.0 0.0 0.0 0.0 0.0 0.0
120853.709709419 3136.6841320769 -290.451419563772 0.0 0.0 0.0 0.0 0.0 0.0
117839.631596161 3059.14768849891 -291.375711744022 0.0 0.0 0.0 0.0 0.0 0.0
114819.183113572 2980.82411503977 -291.714671029854 0.0 0.0 0.0 0.0 0.0 0.0
111796.95274302 2902.27918272781 -291.813723040102 0.0 0.0 0.0 0.0 0.0 0.0
108774.558953139 2823.72157406964 -291.826381150901 0.0 0.0 0.0 0.0 0.0 0.0
105752.422395601 2745.20089754638 -291.815288687799 0.0 0.0 0.0 0.0 0.0 0.0
102730.559182664 2666.71739893314 -291.802176124627 0.0 0.0 0.0 0.0 0.0 0.0
99708.8878707384 2588.25936973404 -291.792653641782 0.0 0.0 0.0 0.0 0.0 0.0
96687.3306973515 2509.81624799802 -291.786902920558 0.0 0.0 0.0 0.0 0.0 0.0
93665.8347520104 2431.38103731205 -291.783901471127 0.0 0.0 0.0 0.0 0.0 0.0
90644.3677288487 2352.94970130037 -291.782827440519 0.0 0.0 0.0 0.0 0.0 0.0
87622.9082654491 2274.51994697523 -291.783415492007 0.0 0.0 0.0 0.0 0.0 0.0
84601.436721062 2196.09017169562 -291.786000458436 0.0 0.0 0.0 0.0 0.0 0.0
81579.9269841987 2117.65863702132 -291.791522909137 0.0 0.0 0.0 0.0 0.0 0.0
78558.3384473126 2039.22275872519 -291.801566483486 0.0 0.0 0.0 0.0 0.0 0.0
75536.6072785575 1960.7783873301 -291.818408603578 0.0 0.0 0.0 0.0 0.0 0.0
72514.6367312483 1882.31900059199 -291.845013988737 0.0 0.0 0.0 0.0 0.0 0.0
69492.2873197359 1803.83480356889 -291.884845769432 0.0 0.0 0.0 0.0 0.0 0.0
66469.3694601376 1725.31184375521 -291.941290909447 0.0 0.0 0.0 0.0 0.0 0.0
63445.6440223635 1646.73142458434 -292.016381962651 0.0 0.0 0.0 0.0 0.0 0.0
60420.8407018482 1568.07038212585 -292.108337659554 0.0 0.0 0.0 0.0 0.0 0.0
57394.7108305002 1489.30322234974 -292.207237260371 0.0 0.0 0.0 0.0 0.0 0.0
54367.1408856846 1410.40776132866 -292.287894436694 0.0 0.0 0.0 0.0 0.0 0.0
51338.3661439581 1331.37684545767 -292.298727105131 0.0 0.0 0.0 0.0 0.0 0.0
48309.3410593257 1252.24001418208 -292.145164990141 0.0 0.0 0.0 0.0 0.0 0.0
45282.344245446 1173.10088578242 -291.665962927495 0.0 0.0 0.0 0.0 0.0 0.0
42261.9211337768 1094.19841149936 -290.600666014589 0.0 0.0 0.0 0.0 0.0 0.0
39256.2990179978 1016.00589878139 -288.546635622662 0.0 0.0 0.0 0.0 0.0 0.0
36279.4461702929 939.383520268633 -284.90303998703 0.0 0.0 0.0 0.0 0.0 0.0
33354.0325216071 865.842153132209 -278.801391868302 0.0 0.0 0.0 0.0 0.0 0.0
30515.6120406564 797.897904635462 -269.004226621709 0.0 0.0 0.0 0.0 0.0 0.0
27818.9973548731 740.069923604742 -253.806564816447 0.0 0.0 0.0 0.0 0.0 0.0
25347.0960843079 699.100580460445 -230.68786053404 0.0 0.0 0.0 0.0 0.0 0.0
23230.6539838579 691.998837313345 -196.599998507288 0.0 0.0 0.0 0.0 0.0 0.0
21663.7370530409 729.373197226581 -144.631363645509 0.0 0.0 0.0 0.0 0.0 0.0
21037.0642399361 936.169649439681 -75.222543982281 0.0 0.0 0.0 0.0 0.0 0.0
21796.9058105664 1121.31172442571 56.1857305932005 0.0 0.0 0.0 0.0 0.0 0.0
26196.9472448683 3154.14302314495 111.644688419305 0.0 0.0 0.0 0.0 0.0 0.0
35734.0478005408 1452.06025543807 485.411043706406 0.0 0.0 0.0 0.0 0.0 0.0
66005.9970698268 37043.1640238201 -4537.48982037043 0.0 0.0 0.0 0.0 0.0 0.0
-3730.74257465621 -143211.834081291 -8453.50130012831 0.0 0.0 0.0 0.0 0.0 0.0

